#------------------------------------------------------------------------------
#$Date: 2016-02-18 17:37:37 +0200 (Thu, 18 Feb 2016) $
#$Revision: 176729 $
#$URL: svn://www.crystallography.net/cod/cif/1/50/57/1505712.cif $
#------------------------------------------------------------------------------
#
# This file is available in the Crystallography Open Database (COD),
# http://www.crystallography.net/
#
# All data on this site have been placed in the public domain by the
# contributors.
#
data_1505712
loop_
_publ_author_name
'Ren, X. M.'
'Akutagawa, T.'
'Noro, S.'
'Nishihara, S.'
'Nakamura, T.'
'Yoshida, Y.'
'Inoue, K.'
_publ_section_title
;
 Structural and magnetic investigations for the doping effect of
 nonmagnetic impurity on the spin-Peierls-like transition in a
 quasi-one-dimensional magnet: 1-(4'-nitrobenzyl)pyridinium
 bis(maleonitriledithiolato)nickelate.
;
_journal_issue                   15
_journal_name_full               'The journal of physical chemistry. B'
_journal_page_first              7671
_journal_page_last               7677
_journal_paper_doi               10.1021/jp0556106
_journal_volume                  110
_journal_year                    2006
_chemical_formula_sum            'C20 H11 Au0.27 N6 Ni0.73 O2 S4'
_chemical_formula_weight         591.30
_chemical_name_systematic
; 
 ? 
;
_space_group_IT_number           14
_symmetry_cell_setting           monoclinic
_symmetry_space_group_name_Hall  '-P 2ybc'
_symmetry_space_group_name_H-M   'P 1 21/c 1'
_atom_sites_solution_hydrogens   geom
_atom_sites_solution_primary     direct
_atom_sites_solution_secondary   difmap
_audit_creation_method           SHELXL-97
_cell_angle_alpha                90.00
_cell_angle_beta                 103.02(3)
_cell_angle_gamma                90.00
_cell_formula_units_Z            4
_cell_length_a                   12.191(2)
_cell_length_b                   26.626(5)
_cell_length_c                   7.2551(15)
_cell_measurement_temperature    273(2)
_cell_volume                     2294.4(8)
_computing_structure_refinement  'SHELXL-97 (Sheldrick, 1997)'
_computing_structure_solution    'SHELXS-97 (Sheldrick, 1990)'
_diffrn_ambient_temperature      273(2)
_diffrn_measured_fraction_theta_full 0.994
_diffrn_measured_fraction_theta_max 0.994
_diffrn_radiation_monochromator  graphite
_diffrn_radiation_source         'fine-focus sealed tube'
_diffrn_radiation_type           MoK\a
_diffrn_radiation_wavelength     0.71073
_diffrn_reflns_av_R_equivalents  0.0324
_diffrn_reflns_av_sigmaI/netI    0.0361
_diffrn_reflns_limit_h_max       15
_diffrn_reflns_limit_h_min       -15
_diffrn_reflns_limit_k_max       34
_diffrn_reflns_limit_k_min       -34
_diffrn_reflns_limit_l_max       8
_diffrn_reflns_limit_l_min       -9
_diffrn_reflns_number            21387
_diffrn_reflns_theta_full        27.41
_diffrn_reflns_theta_max         27.41
_diffrn_reflns_theta_min         2.98
_exptl_absorpt_coefficient_mu    2.730
_exptl_crystal_density_diffrn    1.712
_exptl_crystal_density_method    'not measured'
_exptl_crystal_F_000             1179
_refine_diff_density_max         0.814
_refine_diff_density_min         -0.609
_refine_diff_density_rms         0.073
_refine_ls_extinction_method     none
_refine_ls_goodness_of_fit_ref   1.096
_refine_ls_hydrogen_treatment    mixed
_refine_ls_matrix_type           full
_refine_ls_number_parameters     299
_refine_ls_number_reflns         5193
_refine_ls_number_restraints     0
_refine_ls_restrained_S_all      1.096
_refine_ls_R_factor_all          0.0415
_refine_ls_R_factor_gt           0.0343
_refine_ls_shift/su_max          0.000
_refine_ls_shift/su_mean         0.000
_refine_ls_structure_factor_coef Fsqd
_refine_ls_weighting_details
'calc w=1/[\s^2^(Fo^2^)+(0.0279P)^2^+1.7111P] where P=(Fo^2^+2Fc^2^)/3'
_refine_ls_weighting_scheme      calc
_refine_ls_wR_factor_gt          0.0772
_refine_ls_wR_factor_ref         0.0804
_reflns_number_gt                4470
_reflns_number_total             5193
_reflns_threshold_expression     >2sigma(I)
_cod_data_source_file            jp0556106si20060207_063811.cif
_cod_data_source_block           x=0.27_at_273_K
_cod_depositor_comments
;
The following automatic conversions were performed:

'_symmetry_cell_setting' value 'Monoclinic' changed to 'monoclinic'
according to /home/saulius/struct/CIF-dictionaries/cif_core.dic
dictionary named 'cif_core.dic' version 2.4.1 from 2010-06-29.

Automatic conversion script
Id: cif_fix_values 1715 2011-07-08 13:25:40Z adriana 
;
_cod_original_cell_volume        2294.5(8)
_cod_original_sg_symbol_H-M      P2(1)/c
_cod_database_code               1505712
loop_
_symmetry_equiv_pos_as_xyz
'x, y, z'
'-x, y+1/2, -z+1/2'
'-x, -y, -z'
'x, -y-1/2, z-1/2'
loop_
_atom_site_label
_atom_site_type_symbol
_atom_site_fract_x
_atom_site_fract_y
_atom_site_fract_z
_atom_site_U_iso_or_equiv
_atom_site_adp_type
_atom_site_occupancy
_atom_site_symmetry_multiplicity
_atom_site_calc_flag
_atom_site_refinement_flags
Au1 Au -0.231869(19) 0.226058(8) -0.44967(3) 0.03938(8) Uani 0.2676(8) 1 d P
Ni1 Ni -0.231869(19) 0.226058(8) -0.44967(3) 0.03938(8) Uani 0.7324(8) 1 d P
S1 S -0.34332(6) 0.16226(3) -0.54747(11) 0.04972(19) Uani 1 1 d .
S2 S -0.08832(7) 0.17699(3) -0.34177(11) 0.0535(2) Uani 1 1 d .
S3 S -0.37144(6) 0.27848(3) -0.55561(11) 0.04758(19) Uani 1 1 d .
S4 S -0.11423(6) 0.28918(3) -0.36302(11) 0.05001(19) Uani 1 1 d .
O1 O 0.1682(3) 0.16480(11) -0.0137(5) 0.1122(12) Uani 1 1 d .
O2 O 0.3466(3) 0.16245(11) 0.0605(5) 0.1081(11) Uani 1 1 d .
N1 N -0.3334(3) 0.02514(11) -0.6155(5) 0.0748(9) Uani 1 1 d .
N2 N 0.0079(3) 0.04826(12) -0.3438(5) 0.0803(9) Uani 1 1 d .
N3 N -0.4362(3) 0.41295(11) -0.6302(5) 0.0728(8) Uani 1 1 d .
N4 N -0.0938(3) 0.42631(11) -0.3830(5) 0.0720(8) Uani 1 1 d .
N5 N 0.2773(2) 0.42631(8) -0.1118(3) 0.0468(5) Uani 1 1 d .
N6 N 0.2590(3) 0.18505(11) 0.0249(4) 0.0673(8) Uani 1 1 d .
C1 C -0.2960(3) 0.06314(12) -0.5613(4) 0.0541(7) Uani 1 1 d .
C2 C -0.2516(3) 0.11173(11) -0.4991(4) 0.0470(6) Uani 1 1 d .
C3 C -0.1414(3) 0.11823(11) -0.4112(4) 0.0489(7) Uani 1 1 d .
C4 C -0.0610(3) 0.07780(13) -0.3747(5) 0.0573(8) Uani 1 1 d .
C5 C -0.3778(3) 0.37954(11) -0.5787(4) 0.0509(7) Uani 1 1 d .
C6 C -0.3084(2) 0.33689(10) -0.5179(4) 0.0426(6) Uani 1 1 d .
C7 C -0.1970(2) 0.34118(11) -0.4364(4) 0.0427(6) Uani 1 1 d .
C8 C -0.1415(3) 0.38901(12) -0.4084(4) 0.0512(7) Uani 1 1 d .
C9 C 0.3755(3) 0.43447(12) -0.1599(6) 0.0642(9) Uani 1 1 d .
H9A H 0.4422 0.4237 -0.0803 0.077 Uiso 1 1 calc R
C10 C 0.3785(4) 0.45835(14) -0.3246(6) 0.0811(12) Uani 1 1 d .
H10A H 0.4468 0.4642 -0.3577 0.097 Uiso 1 1 calc R
C11 C 0.2783(4) 0.47386(14) -0.4424(5) 0.0784(12) Uani 1 1 d .
H11A H 0.2786 0.4898 -0.5564 0.094 Uiso 1 1 calc R
C12 C 0.1787(4) 0.46554(13) -0.3893(5) 0.0753(11) Uani 1 1 d .
H12A H 0.1110 0.4761 -0.4662 0.090 Uiso 1 1 calc R
C13 C 0.1801(3) 0.44171(12) -0.2233(5) 0.0604(8) Uani 1 1 d .
H13A H 0.1129 0.4360 -0.1865 0.072 Uiso 1 1 calc R
C14 C 0.2762(3) 0.40013(12) 0.0698(4) 0.0545(7) Uani 1 1 d .
H14A H 0.2115 0.4114 0.1155 0.065 Uiso 1 1 calc R
H14B H 0.3434 0.4092 0.1635 0.065 Uiso 1 1 calc R
C15 C 0.2715(2) 0.34358(11) 0.0480(4) 0.0439(6) Uani 1 1 d .
C16 C 0.3690(3) 0.31550(12) 0.0922(5) 0.0565(8) Uani 1 1 d .
H16A H 0.4380 0.3317 0.1289 0.068 Uiso 1 1 calc R
C17 C 0.3656(3) 0.26356(12) 0.0827(5) 0.0575(8) Uani 1 1 d .
H17A H 0.4315 0.2447 0.1125 0.069 Uiso 1 1 calc R
C18 C 0.2631(3) 0.24061(11) 0.0286(4) 0.0463(6) Uani 1 1 d .
C19 C 0.1646(3) 0.26720(12) -0.0186(5) 0.0608(8) Uani 1 1 d .
H19A H 0.0958 0.2508 -0.0554 0.073 Uiso 1 1 calc R
C20 C 0.1698(3) 0.31892(12) -0.0102(5) 0.0593(8) Uani 1 1 d .
H20A H 0.1037 0.3375 -0.0443 0.071 Uiso 1 1 calc R
loop_
_atom_site_aniso_label
_atom_site_aniso_U_11
_atom_site_aniso_U_22
_atom_site_aniso_U_33
_atom_site_aniso_U_23
_atom_site_aniso_U_13
_atom_site_aniso_U_12
Au1 0.03594(12) 0.04025(13) 0.04115(13) 0.00415(9) 0.00701(8) -0.00092(8)
Ni1 0.03594(12) 0.04025(13) 0.04115(13) 0.00415(9) 0.00701(8) -0.00092(8)
S1 0.0404(4) 0.0531(4) 0.0550(4) 0.0038(3) 0.0093(3) 0.0009(3)
S2 0.0401(4) 0.0605(5) 0.0570(4) 0.0016(4) 0.0046(3) -0.0007(3)
S3 0.0371(4) 0.0472(4) 0.0552(4) 0.0026(3) 0.0036(3) -0.0041(3)
S4 0.0383(4) 0.0533(4) 0.0540(4) 0.0039(3) 0.0009(3) -0.0023(3)
O1 0.102(3) 0.0616(17) 0.156(3) 0.0076(19) -0.008(2) -0.0232(17)
O2 0.110(3) 0.0572(16) 0.153(3) 0.0160(18) 0.022(2) 0.0240(17)
N1 0.080(2) 0.0548(17) 0.085(2) 0.0019(16) 0.0100(17) -0.0063(15)
N2 0.073(2) 0.075(2) 0.087(2) 0.0018(18) 0.0054(17) 0.0261(17)
N3 0.0569(19) 0.0518(16) 0.104(2) -0.0023(16) 0.0055(16) 0.0062(14)
N4 0.066(2) 0.0562(16) 0.088(2) -0.0054(15) 0.0043(16) -0.0145(15)
N5 0.0435(14) 0.0380(11) 0.0574(14) -0.0034(11) 0.0083(11) -0.0007(10)
N6 0.088(2) 0.0515(16) 0.0574(16) 0.0092(13) 0.0065(15) 0.0009(16)
C1 0.0537(19) 0.0508(17) 0.0573(18) 0.0070(15) 0.0116(14) 0.0013(14)
C2 0.0481(17) 0.0501(16) 0.0451(14) 0.0034(13) 0.0155(12) -0.0006(12)
C3 0.0486(17) 0.0540(17) 0.0456(14) 0.0083(13) 0.0138(12) 0.0063(13)
C4 0.056(2) 0.0590(18) 0.0557(17) 0.0033(15) 0.0098(14) 0.0068(15)
C5 0.0449(17) 0.0476(16) 0.0586(17) -0.0033(14) 0.0085(13) -0.0021(13)
C6 0.0439(15) 0.0413(14) 0.0429(13) -0.0011(12) 0.0102(11) -0.0013(11)
C7 0.0405(15) 0.0479(15) 0.0398(13) -0.0004(12) 0.0089(11) -0.0017(11)
C8 0.0429(17) 0.0555(17) 0.0533(16) -0.0020(14) 0.0071(13) -0.0045(13)
C9 0.0472(19) 0.0569(18) 0.091(2) 0.0046(18) 0.0206(17) 0.0061(14)
C10 0.092(3) 0.060(2) 0.106(3) 0.009(2) 0.054(3) 0.002(2)
C11 0.124(4) 0.0483(19) 0.065(2) 0.0062(17) 0.026(2) -0.003(2)
C12 0.082(3) 0.058(2) 0.074(2) 0.0090(19) -0.009(2) -0.0073(18)
C13 0.0460(18) 0.0540(18) 0.075(2) 0.0039(16) -0.0002(15) -0.0037(14)
C14 0.0566(19) 0.0534(17) 0.0527(16) -0.0033(14) 0.0108(14) 0.0025(14)
C15 0.0400(15) 0.0508(15) 0.0413(14) 0.0015(12) 0.0098(11) -0.0001(12)
C16 0.0338(16) 0.0582(18) 0.073(2) 0.0014(16) 0.0021(13) -0.0019(13)
C17 0.0415(18) 0.0597(18) 0.069(2) 0.0061(16) 0.0078(14) 0.0104(14)
C18 0.0518(18) 0.0494(15) 0.0372(13) 0.0050(12) 0.0085(12) -0.0005(13)
C19 0.0374(17) 0.0590(18) 0.081(2) 0.0084(17) 0.0022(15) -0.0069(13)
C20 0.0349(16) 0.0571(18) 0.084(2) 0.0095(17) 0.0088(14) 0.0056(13)
loop_
_atom_type_symbol
_atom_type_description
_atom_type_scat_dispersion_real
_atom_type_scat_dispersion_imag
_atom_type_scat_source
C C 0.0033 0.0016 'International Tables Vol C Tables 4.2.6.8 and 6.1.1.4'
H H 0.0000 0.0000 'International Tables Vol C Tables 4.2.6.8 and 6.1.1.4'
N N 0.0061 0.0033 'International Tables Vol C Tables 4.2.6.8 and 6.1.1.4'
O O 0.0106 0.0060 'International Tables Vol C Tables 4.2.6.8 and 6.1.1.4'
S S 0.1246 0.1234 'International Tables Vol C Tables 4.2.6.8 and 6.1.1.4'
Ni Ni 0.3393 1.1124 'International Tables Vol C Tables 4.2.6.8 and 6.1.1.4'
Au Au -2.0133 8.8022 'International Tables Vol C Tables 4.2.6.8 and 6.1.1.4'
loop_
_geom_angle_atom_site_label_1
_geom_angle_atom_site_label_2
_geom_angle_atom_site_label_3
_geom_angle
S2 Au1 S1 92.33(4)
S2 Au1 S3 177.40(3)
S1 Au1 S3 90.25(3)
S2 Au1 S4 86.36(4)
S1 Au1 S4 176.80(3)
S3 Au1 S4 91.04(3)
C2 S1 Au1 102.22(11)
C3 S2 Au1 102.74(11)
C6 S3 Au1 103.55(10)
C7 S4 Au1 103.05(10)
C9 N5 C13 121.0(3)
C9 N5 C14 119.5(3)
C13 N5 C14 119.6(3)
O2 N6 O1 123.4(4)
O2 N6 C18 118.1(3)
O1 N6 C18 118.5(3)
N1 C1 C2 177.9(4)
C3 C2 C1 121.6(3)
C3 C2 S1 121.3(2)
C1 C2 S1 117.1(2)
C2 C3 C4 123.3(3)
C2 C3 S2 121.2(2)
C4 C3 S2 115.5(2)
N2 C4 C3 175.4(4)
N3 C5 C6 177.9(3)
C7 C6 C5 122.2(3)
C7 C6 S3 120.6(2)
C5 C6 S3 117.2(2)
C6 C7 C8 122.0(3)
C6 C7 S4 121.6(2)
C8 C7 S4 116.4(2)
N4 C8 C7 177.6(4)
N5 C9 C10 120.5(4)
C9 C10 C11 119.1(4)
C12 C11 C10 119.4(4)
C13 C12 C11 119.3(4)
N5 C13 C12 120.7(3)
N5 C14 C15 112.3(2)
C16 C15 C20 118.7(3)
C16 C15 C14 120.3(3)
C20 C15 C14 121.0(3)
C15 C16 C17 121.0(3)
C18 C17 C16 118.4(3)
C17 C18 C19 122.3(3)
C17 C18 N6 118.5(3)
C19 C18 N6 119.2(3)
C18 C19 C20 118.5(3)
C19 C20 C15 121.1(3)
loop_
_geom_bond_atom_site_label_1
_geom_bond_atom_site_label_2
_geom_bond_distance
Au1 S2 2.1829(9)
Au1 S1 2.1911(9)
Au1 S3 2.2010(9)
Au1 S4 2.2068(9)
S1 C2 1.734(3)
S2 C3 1.724(3)
S3 C6 1.729(3)
S4 C7 1.726(3)
O1 N6 1.206(4)
O2 N6 1.202(4)
N1 C1 1.143(4)
N2 C4 1.136(4)
N3 C5 1.148(4)
N4 C8 1.145(4)
N5 C9 1.338(4)
N5 C13 1.339(4)
N5 C14 1.493(4)
N6 C18 1.480(4)
C1 C2 1.435(4)
C2 C3 1.363(4)
C3 C4 1.439(4)
C5 C6 1.425(4)
C6 C7 1.359(4)
C7 C8 1.435(4)
C9 C10 1.361(5)
C10 C11 1.386(6)
C11 C12 1.372(6)
C12 C13 1.358(5)
C14 C15 1.514(4)
C15 C16 1.379(4)
C15 C20 1.383(4)
C16 C17 1.385(4)
C17 C18 1.367(4)
C18 C19 1.369(4)
C19 C20 1.379(4)
