#------------------------------------------------------------------------------
#$Date: 2017-07-11 14:26:40 +0300 (Tue, 11 Jul 2017) $
#$Revision: 198632 $
#$URL: file:///home/coder/svn-repositories/cod/cif/1/50/19/1501958.cif $
#------------------------------------------------------------------------------
#
# This file is available in the Crystallography Open Database (COD),
# http://www.crystallography.net/
#
# All data on this site have been placed in the public domain by the
# contributors.
#
data_1501958
loop_
_publ_author_name
'Zhu, Yuanxun'
'Yin, Guangwei'
'Hong, Deng'
'Lu, Ping'
'Wang, Yanguang'
_publ_section_title
;
 Tandem reaction of propargylic alcohol, sulfonamide, and
 N-iodosuccinimide: synthesis of N-(2-iodoinden-1-yl)arenesulfonamide.
;
_journal_issue                   5
_journal_name_full               'Organic letters'
_journal_page_first              1024
_journal_page_last               1027
_journal_paper_doi               10.1021/ol103074d
_journal_volume                  13
_journal_year                    2011
_chemical_formula_moiety         'C28 H22 I N O2 S'
_chemical_formula_sum            'C28 H22 I N O2 S'
_chemical_formula_weight         563.43
_chemical_name_systematic
; 
 ? 
;
_space_group_IT_number           2
_symmetry_cell_setting           triclinic
_symmetry_space_group_name_Hall  '-P 1'
_symmetry_space_group_name_H-M   'P -1'
_atom_sites_solution_hydrogens   geom
_atom_sites_solution_primary     direct
_atom_sites_solution_secondary   difmap
_audit_creation_method           SHELXL-97
_cell_angle_alpha                76.252(5)
_cell_angle_beta                 68.044(6)
_cell_angle_gamma                75.371(5)
_cell_formula_units_Z            2
_cell_length_a                   10.0605(6)
_cell_length_b                   11.3570(6)
_cell_length_c                   11.6434(7)
_cell_measurement_reflns_used    3253
_cell_measurement_temperature    293(2)
_cell_measurement_theta_max      29.3196
_cell_measurement_theta_min      3.4480
_cell_volume                     1178.55(13)
_computing_cell_refinement
;
CrysAlisPro, Oxford Diffraction Ltd.,
Version 1.171.33.52 (release 06-11-2009 CrysAlis171 .NET)
(compiled Nov  6 2009,16:24:50)
;
_computing_data_collection
;
CrysAlisPro, Oxford Diffraction Ltd.,
Version 1.171.33.52 (release 06-11-2009 CrysAlis171 .NET)
(compiled Nov  6 2009,16:24:50)
;
_computing_data_reduction
;
CrysAlisPro, Oxford Diffraction Ltd.,
Version 1.171.33.52 (release 06-11-2009 CrysAlis171 .NET)
(compiled Nov  6 2009,16:24:50)
;
_computing_molecular_graphics
;
 OLEX2: a complete structure solution, refinement and analysis program.
 Dolomanov et al., J. Appl. Cryst. (2009). 42, 339-341
;
_computing_publication_material
;
 OLEX2: a complete structure solution, refinement and analysis program.
 Dolomanov et al., J. Appl. Cryst. (2009). 42, 339-341
;
_diffrn_ambient_temperature      293(2)
_diffrn_detector_area_resol_mean 10.3592
_diffrn_measured_fraction_theta_full 0.997
_diffrn_measured_fraction_theta_max 0.997
_diffrn_measurement_device_type  'Xcalibur, Atlas, Gemini ultra'
_diffrn_measurement_method       '\w scans'
_diffrn_radiation_monochromator  graphite
_diffrn_radiation_source         'fine-focus sealed tube'
_diffrn_radiation_type           MoK\a
_diffrn_radiation_wavelength     0.71073
_diffrn_reflns_av_R_equivalents  0.0283
_diffrn_reflns_av_sigmaI/netI    0.0729
_diffrn_reflns_limit_h_max       12
_diffrn_reflns_limit_h_min       -12
_diffrn_reflns_limit_k_max       11
_diffrn_reflns_limit_k_min       -13
_diffrn_reflns_limit_l_max       14
_diffrn_reflns_limit_l_min       -11
_diffrn_reflns_number            7792
_diffrn_reflns_theta_full        25.35
_diffrn_reflns_theta_max         25.35
_diffrn_reflns_theta_min         3.45
_exptl_absorpt_coefficient_mu    1.473
_exptl_absorpt_correction_T_max  0.915
_exptl_absorpt_correction_T_min  0.781
_exptl_absorpt_correction_type   multi-scan
_exptl_absorpt_process_details
;
CrysAlisPro, Oxford Diffraction Ltd.,
Version 1.171.33.53 (release 17-11-2009 CrysAlis171 .NET)
(compiled Nov 17 2009,16:58:22)
Empirical absorption correction using spherical harmonics,
 implemented in SCALE3 ABSPACK scaling algorithm.
;
_exptl_crystal_colour            colorless
_exptl_crystal_density_diffrn    1.588
_exptl_crystal_density_method    'not measured'
_exptl_crystal_description       platelet
_exptl_crystal_F_000             564
_exptl_crystal_size_max          0.20
_exptl_crystal_size_mid          0.14
_exptl_crystal_size_min          0.06
_refine_diff_density_max         0.524
_refine_diff_density_min         -0.431
_refine_diff_density_rms         0.066
_refine_ls_extinction_method     none
_refine_ls_goodness_of_fit_ref   0.853
_refine_ls_hydrogen_treatment    constr
_refine_ls_matrix_type           full
_refine_ls_number_parameters     299
_refine_ls_number_reflns         4296
_refine_ls_number_restraints     0
_refine_ls_restrained_S_all      0.853
_refine_ls_R_factor_all          0.0581
_refine_ls_R_factor_gt           0.0325
_refine_ls_shift/su_max          0.003
_refine_ls_shift/su_mean         0.000
_refine_ls_structure_factor_coef Fsqd
_refine_ls_weighting_details
'calc w=1/[\s^2^(Fo^2^)+(0.0175P)^2^+0.0000P] where P=(Fo^2^+2Fc^2^)/3'
_refine_ls_weighting_scheme      calc
_refine_ls_wR_factor_gt          0.0496
_refine_ls_wR_factor_ref         0.0525
_reflns_number_gt                2945
_reflns_number_total             4296
_reflns_threshold_expression     >2sigma(I)
_cod_data_source_file            ol103074d_si_002.cif
_cod_data_source_block           100514_zyx126
_cod_depositor_comments
;
The following automatic conversions were performed:

'_symmetry_cell_setting' value 'Triclinic' changed to 'triclinic'
according to /home/saulius/struct/CIF-dictionaries/cif_core.dic
dictionary named 'cif_core.dic' version 2.4.1 from 2010-06-29.

Automatic conversion script
Id: cif_fix_values 1715 2011-07-08 13:25:40Z adriana 

The following automatic conversions were performed:

'_exptl_absorpt_correction_type' value 'multi-scan'' was replaced
with the value 'multi-scan' as specified in the replacement file
'src/cod-tools/trunk/data/replacement-values/replacement_values.lst'.

Automatic conversion script
Id: cif_fix_values 5376 2017-05-30 11:51:03Z andrius 
;
_cod_original_cell_volume        1178.54(12)
_cod_database_code               1501958
loop_
_symmetry_equiv_pos_as_xyz
'x, y, z'
'-x, -y, -z'
loop_
_atom_site_label
_atom_site_type_symbol
_atom_site_fract_x
_atom_site_fract_y
_atom_site_fract_z
_atom_site_U_iso_or_equiv
_atom_site_adp_type
_atom_site_occupancy
_atom_site_symmetry_multiplicity
_atom_site_calc_flag
_atom_site_refinement_flags
I1 I 0.60566(3) 0.57248(2) 0.61158(2) 0.04884(10) Uani 1 1 d .
S S 0.26989(8) 0.61766(7) 0.99057(7) 0.0303(2) Uani 1 1 d .
O1 O 0.1674(2) 0.71702(19) 1.04695(19) 0.0408(6) Uani 1 1 d .
O2 O 0.3168(2) 0.51073(18) 1.07001(19) 0.0401(6) Uani 1 1 d .
N N 0.4197(2) 0.6646(2) 0.9020(2) 0.0290(6) Uani 1 1 d .
H H 0.4961 0.6236 0.9195 0.035 Uiso 1 1 calc R
C1 C 0.2239(4) 0.7645(3) 0.5043(3) 0.0459(9) Uani 1 1 d .
H1 H 0.1505 0.7512 0.5811 0.055 Uiso 1 1 calc R
C2 C 0.2050(5) 0.7544(3) 0.3953(4) 0.0631(12) Uani 1 1 d .
H2 H 0.1205 0.7318 0.3992 0.076 Uiso 1 1 calc R
C3 C 0.3111(5) 0.7776(3) 0.2817(4) 0.0655(13) Uani 1 1 d .
H3 H 0.2985 0.7713 0.2083 0.079 Uiso 1 1 calc R
C4 C 0.4350(5) 0.8101(4) 0.2764(3) 0.0626(12) Uani 1 1 d .
H4 H 0.5064 0.8270 0.1992 0.075 Uiso 1 1 calc R
C5 C 0.4550(4) 0.8179(3) 0.3851(3) 0.0476(9) Uani 1 1 d .
H5 H 0.5401 0.8397 0.3806 0.057 Uiso 1 1 calc R
C6 C 0.3506(3) 0.7940(3) 0.4998(3) 0.0322(8) Uani 1 1 d .
C7 C 0.3692(3) 0.8026(3) 0.6178(3) 0.0282(7) Uani 1 1 d .
C8 C 0.2818(3) 0.8975(3) 0.6967(3) 0.0288(7) Uani 1 1 d .
C9 C 0.1757(3) 0.9973(3) 0.6791(3) 0.0370(8) Uani 1 1 d .
H9 H 0.1498 1.0126 0.6075 0.044 Uiso 1 1 calc R
C10 C 0.1086(3) 1.0739(3) 0.7679(3) 0.0436(9) Uani 1 1 d .
H10 H 0.0364 1.1407 0.7567 0.052 Uiso 1 1 calc R
C11 C 0.1483(3) 1.0517(3) 0.8738(3) 0.0419(9) Uani 1 1 d .
H11 H 0.1021 1.1038 0.9336 0.050 Uiso 1 1 calc R
C12 C 0.2550(3) 0.9537(3) 0.8921(3) 0.0355(8) Uani 1 1 d .
H12 H 0.2824 0.9401 0.9628 0.043 Uiso 1 1 calc R
C13 C 0.3209(3) 0.8756(3) 0.8036(3) 0.0264(7) Uani 1 1 d .
C14 C 0.4464(3) 0.7661(3) 0.7962(3) 0.0264(7) Uani 1 1 d .
C15 C 0.4629(3) 0.7282(3) 0.6727(3) 0.0284(7) Uani 1 1 d .
C16 C 0.5814(3) 0.8100(3) 0.7917(3) 0.0290(7) Uani 1 1 d .
C17 C 0.6818(4) 0.8530(3) 0.6813(3) 0.0448(9) Uani 1 1 d .
H17 H 0.6722 0.8518 0.6052 0.054 Uiso 1 1 calc R
C18 C 0.7963(4) 0.8977(3) 0.6820(4) 0.0548(10) Uani 1 1 d .
H18 H 0.8634 0.9262 0.6065 0.066 Uiso 1 1 calc R
C19 C 0.8126(4) 0.9006(3) 0.7930(4) 0.0524(10) Uani 1 1 d .
H19 H 0.8898 0.9316 0.7929 0.063 Uiso 1 1 calc R
C20 C 0.7153(4) 0.8580(3) 0.9027(4) 0.0495(10) Uani 1 1 d .
H20 H 0.7267 0.8585 0.9783 0.059 Uiso 1 1 calc R
C21 C 0.5992(3) 0.8138(3) 0.9028(3) 0.0407(9) Uani 1 1 d .
H21 H 0.5321 0.7863 0.9788 0.049 Uiso 1 1 calc R
C22 C 0.1965(3) 0.5701(3) 0.8973(3) 0.0291(7) Uani 1 1 d .
C23 C 0.0677(3) 0.6348(3) 0.8813(3) 0.0375(8) Uani 1 1 d .
H23 H 0.0202 0.7052 0.9178 0.045 Uiso 1 1 calc R
C24 C 0.0095(4) 0.5949(3) 0.8109(3) 0.0424(9) Uani 1 1 d .
H24 H -0.0784 0.6383 0.8014 0.051 Uiso 1 1 calc R
C25 C 0.0782(3) 0.4918(3) 0.7541(3) 0.0357(8) Uani 1 1 d .
C26 C 0.2074(4) 0.4278(3) 0.7721(3) 0.0465(9) Uani 1 1 d .
H26 H 0.2556 0.3579 0.7349 0.056 Uiso 1 1 calc R
C27 C 0.2657(3) 0.4655(3) 0.8438(3) 0.0457(9) Uani 1 1 d .
H27 H 0.3516 0.4205 0.8562 0.055 Uiso 1 1 calc R
C28 C 0.0141(4) 0.4515(3) 0.6756(3) 0.0565(10) Uani 1 1 d .
H28B H 0.0047 0.5167 0.6078 0.085 Uiso 1 1 calc R
H28C H -0.0803 0.4323 0.7265 0.085 Uiso 1 1 calc R
H28A H 0.0767 0.3796 0.6422 0.085 Uiso 1 1 calc R
loop_
_atom_site_aniso_label
_atom_site_aniso_U_11
_atom_site_aniso_U_22
_atom_site_aniso_U_33
_atom_site_aniso_U_23
_atom_site_aniso_U_13
_atom_site_aniso_U_12
I1 0.05131(16) 0.04840(16) 0.04348(16) -0.02129(12) -0.01784(12) 0.01288(11)
S 0.0284(5) 0.0352(5) 0.0273(5) -0.0040(4) -0.0100(4) -0.0061(4)
O1 0.0361(13) 0.0443(14) 0.0404(14) -0.0185(12) -0.0068(11) -0.0029(11)
O2 0.0396(13) 0.0437(14) 0.0356(14) 0.0097(11) -0.0190(12) -0.0102(11)
N 0.0236(14) 0.0357(16) 0.0320(16) -0.0004(13) -0.0144(12) -0.0095(12)
C1 0.056(2) 0.051(2) 0.040(2) -0.0010(18) -0.026(2) -0.0175(19)
C2 0.088(3) 0.056(3) 0.074(3) -0.010(2) -0.060(3) -0.015(2)
C3 0.103(4) 0.057(3) 0.047(3) -0.024(2) -0.044(3) 0.012(3)
C4 0.073(3) 0.076(3) 0.033(2) -0.016(2) -0.019(2) 0.007(2)
C5 0.050(2) 0.056(2) 0.036(2) -0.0099(19) -0.018(2) -0.0011(19)
C6 0.040(2) 0.0293(19) 0.031(2) -0.0060(15) -0.0187(17) -0.0005(15)
C7 0.0282(17) 0.0320(18) 0.0268(18) -0.0033(15) -0.0104(15) -0.0091(14)
C8 0.0247(17) 0.0292(18) 0.0322(19) -0.0071(15) -0.0079(15) -0.0047(14)
C9 0.0375(19) 0.039(2) 0.038(2) -0.0022(17) -0.0229(18) -0.0006(16)
C10 0.040(2) 0.036(2) 0.057(3) -0.0100(18) -0.025(2) 0.0059(16)
C11 0.036(2) 0.039(2) 0.050(2) -0.0212(18) -0.0111(19) 0.0027(16)
C12 0.039(2) 0.0368(19) 0.037(2) -0.0124(16) -0.0171(17) -0.0036(16)
C13 0.0285(17) 0.0260(17) 0.0254(18) -0.0028(14) -0.0093(15) -0.0069(14)
C14 0.0288(17) 0.0273(17) 0.0242(18) -0.0054(14) -0.0113(15) -0.0019(14)
C15 0.0280(17) 0.0292(18) 0.0283(19) -0.0079(15) -0.0102(15) -0.0014(14)
C16 0.0295(18) 0.0238(17) 0.033(2) -0.0034(15) -0.0106(16) -0.0049(14)
C17 0.044(2) 0.049(2) 0.043(2) 0.0048(18) -0.021(2) -0.0129(18)
C18 0.042(2) 0.060(3) 0.057(3) 0.017(2) -0.016(2) -0.0259(19)
C19 0.044(2) 0.044(2) 0.080(3) -0.002(2) -0.031(2) -0.0160(18)
C20 0.050(2) 0.055(2) 0.059(3) -0.015(2) -0.030(2) -0.012(2)
C21 0.038(2) 0.051(2) 0.039(2) -0.0140(18) -0.0121(17) -0.0117(17)
C22 0.0253(17) 0.0338(19) 0.0294(19) -0.0045(15) -0.0087(15) -0.0086(15)
C23 0.0321(19) 0.035(2) 0.047(2) -0.0079(17) -0.0172(18) -0.0013(15)
C24 0.041(2) 0.044(2) 0.050(2) -0.0003(18) -0.0280(19) -0.0076(17)
C25 0.038(2) 0.046(2) 0.031(2) -0.0021(17) -0.0135(17) -0.0213(17)
C26 0.045(2) 0.050(2) 0.052(2) -0.0238(19) -0.019(2) -0.0026(18)
C27 0.033(2) 0.050(2) 0.058(2) -0.019(2) -0.0212(19) 0.0041(17)
C28 0.057(2) 0.076(3) 0.047(3) -0.011(2) -0.020(2) -0.024(2)
loop_
_atom_type_symbol
_atom_type_description
_atom_type_scat_dispersion_real
_atom_type_scat_dispersion_imag
_atom_type_scat_source
C C 0.0033 0.0016 'International Tables Vol C Tables 4.2.6.8 and 6.1.1.4'
H H 0.0000 0.0000 'International Tables Vol C Tables 4.2.6.8 and 6.1.1.4'
N N 0.0061 0.0033 'International Tables Vol C Tables 4.2.6.8 and 6.1.1.4'
I I -0.4742 1.8119 'International Tables Vol C Tables 4.2.6.8 and 6.1.1.4'
S S 0.1246 0.1234 'International Tables Vol C Tables 4.2.6.8 and 6.1.1.4'
O O 0.0106 0.0060 'International Tables Vol C Tables 4.2.6.8 and 6.1.1.4'
loop_
_geom_angle_atom_site_label_1
_geom_angle_atom_site_label_2
_geom_angle_atom_site_label_3
_geom_angle
O1 S O2 118.73(13)
O1 S N 109.47(13)
O2 S N 103.37(12)
O1 S C22 107.87(12)
O2 S C22 108.19(13)
N S C22 108.87(13)
C14 N S 130.20(19)
C14 N H 114.9
S N H 114.9
C6 C1 C2 120.5(4)
C6 C1 H1 119.8
C2 C1 H1 119.8
C3 C2 C1 119.9(4)
C3 C2 H2 120.1
C1 C2 H2 120.1
C4 C3 C2 119.9(3)
C4 C3 H3 120.1
C2 C3 H3 120.1
C3 C4 C5 120.2(4)
C3 C4 H4 119.9
C5 C4 H4 119.9
C6 C5 C4 120.8(4)
C6 C5 H5 119.6
C4 C5 H5 119.6
C5 C6 C1 118.8(3)
C5 C6 C7 121.7(3)
C1 C6 C7 119.5(3)
C15 C7 C8 108.1(2)
C15 C7 C6 128.0(3)
C8 C7 C6 123.9(2)
C9 C8 C13 119.9(2)
C9 C8 C7 130.7(3)
C13 C8 C7 109.5(2)
C10 C9 C8 119.8(3)
C10 C9 H9 120.1
C8 C9 H9 120.1
C9 C10 C11 120.0(3)
C9 C10 H10 120.0
C11 C10 H10 120.0
C12 C11 C10 121.0(3)
C12 C11 H11 119.5
C10 C11 H11 119.5
C11 C12 C13 118.9(3)
C11 C12 H12 120.5
C13 C12 H12 120.5
C12 C13 C8 120.4(3)
C12 C13 C14 129.9(3)
C8 C13 C14 109.5(2)
N C14 C13 115.3(2)
N C14 C15 112.2(2)
C13 C14 C15 100.6(2)
N C14 C16 106.5(2)
C13 C14 C16 109.0(2)
C15 C14 C16 113.4(2)
C7 C15 C14 112.3(2)
C7 C15 I1 126.1(2)
C14 C15 I1 121.46(19)
C17 C16 C21 117.8(3)
C17 C16 C14 122.8(3)
C21 C16 C14 119.3(3)
C18 C17 C16 120.8(3)
C18 C17 H17 119.6
C16 C17 H17 119.6
C19 C18 C17 120.6(4)
C19 C18 H18 119.7
C17 C18 H18 119.7
C20 C19 C18 119.5(3)
C20 C19 H19 120.3
C18 C19 H19 120.3
C19 C20 C21 120.3(3)
C19 C20 H20 119.9
C21 C20 H20 119.9
C20 C21 C16 121.0(3)
C20 C21 H21 119.5
C16 C21 H21 119.5
C23 C22 C27 119.9(3)
C23 C22 S 120.2(2)
C27 C22 S 119.9(2)
C22 C23 C24 119.6(3)
C22 C23 H23 120.2
C24 C23 H23 120.2
C23 C24 C25 121.6(3)
C23 C24 H24 119.2
C25 C24 H24 119.2
C24 C25 C26 117.8(3)
C24 C25 C28 120.6(3)
C26 C25 C28 121.6(3)
C27 C26 C25 121.2(3)
C27 C26 H26 119.4
C25 C26 H26 119.4
C26 C27 C22 119.8(3)
C26 C27 H27 120.1
C22 C27 H27 120.1
C25 C28 H28B 109.5
C25 C28 H28C 109.5
H28B C28 H28C 109.5
C25 C28 H28A 109.5
H28B C28 H28A 109.5
H28C C28 H28A 109.5
loop_
_geom_bond_atom_site_label_1
_geom_bond_atom_site_label_2
_geom_bond_distance
I1 C15 2.061(3)
S O1 1.4233(19)
S O2 1.434(2)
S N 1.613(2)
S C22 1.759(3)
N C14 1.467(4)
N H 0.8600
C1 C6 1.377(4)
C1 C2 1.386(4)
C1 H1 0.9300
C2 C3 1.371(5)
C2 H2 0.9300
C3 C4 1.363(5)
C3 H3 0.9300
C4 C5 1.379(4)
C4 H4 0.9300
C5 C6 1.372(4)
C5 H5 0.9300
C6 C7 1.482(4)
C7 C15 1.342(4)
C7 C8 1.473(4)
C8 C9 1.381(4)
C8 C13 1.392(4)
C9 C10 1.375(4)
C9 H9 0.9300
C10 C11 1.383(4)
C10 H10 0.9300
C11 C12 1.376(4)
C11 H11 0.9300
C12 C13 1.383(4)
C12 H12 0.9300
C13 C14 1.524(4)
C14 C15 1.536(4)
C14 C16 1.541(4)
C16 C17 1.376(4)
C16 C21 1.382(4)
C17 C18 1.374(4)
C17 H17 0.9300
C18 C19 1.370(5)
C18 H18 0.9300
C19 C20 1.355(5)
C19 H19 0.9300
C20 C21 1.382(4)
C20 H20 0.9300
C21 H21 0.9300
C22 C23 1.374(4)
C22 C27 1.376(4)
C23 C24 1.375(4)
C23 H23 0.9300
C24 C25 1.379(4)
C24 H24 0.9300
C25 C26 1.384(4)
C25 C28 1.501(4)
C26 C27 1.375(4)
C26 H26 0.9300
C27 H27 0.9300
C28 H28B 0.9600
C28 H28C 0.9600
C28 H28A 0.9600
