#------------------------------------------------------------------------------
#$Date: 2016-02-18 17:37:37 +0200 (Thu, 18 Feb 2016) $
#$Revision: 176729 $
#$URL: svn://www.crystallography.net/cod/cif/1/50/17/1501715.cif $
#------------------------------------------------------------------------------
#
# This file is available in the Crystallography Open Database (COD),
# http://www.crystallography.net/
#
# All data on this site have been placed in the public domain by the
# contributors.
#
data_1501715
loop_
_publ_author_name
'Lethesh, Kallidanthiyil Chellappan'
'Van Hecke, Kristof'
'Van Meervelt, Luc'
'Nockemann, Peter'
'Kirchner, Barbara'
'Zahn, Stefan'
'Parac-Vogt, Tatjana N'
'Dehaen, Wim'
'Binnemans, Koen'
_publ_section_title
;
 Nitrile-functionalized pyridinium, pyrrolidinium, and piperidinium ionic
 liquids.
;
_journal_issue                   26
_journal_name_full               'The journal of physical chemistry. B'
_journal_page_first              8424
_journal_page_last               8438
_journal_paper_doi               10.1021/jp2027675
_journal_volume                  115
_journal_year                    2011
_chemical_formula_moiety         'C9 H11 N2, C2 F6 N O4 S2'
_chemical_formula_sum            'C11 H11 F6 N3 O4 S2'
_chemical_formula_weight         427.37
_chemical_name_systematic
; 
 ? 
;
_space_group_IT_number           2
_symmetry_cell_setting           triclinic
_symmetry_space_group_name_Hall  '-P 1'
_symmetry_space_group_name_H-M   'P -1'
_atom_sites_solution_hydrogens   geom
_atom_sites_solution_primary     direct
_atom_sites_solution_secondary   difmap
_audit_creation_method           SHELXL-97
_cell_angle_alpha                98.692(5)
_cell_angle_beta                 104.289(6)
_cell_angle_gamma                104.167(5)
_cell_formula_units_Z            2
_cell_length_a                   8.2118(8)
_cell_length_b                   8.6844(7)
_cell_length_c                   12.6209(12)
_cell_measurement_temperature    100(2)
_cell_volume                     823.97(14)
_computing_cell_refinement       'Bruker SAINT'
_computing_data_collection       'Bruker SMART'
_computing_data_reduction        'Bruker SAINT'
_computing_publication_material  Platon
_computing_structure_refinement  'SHELXL-97 (Sheldrick, 1997)'
_computing_structure_solution    'SHELXS-97 (Sheldrick, 1990)'
_diffrn_ambient_temperature      100(2)
_diffrn_measured_fraction_theta_full 0.974
_diffrn_measured_fraction_theta_max 0.945
_diffrn_measurement_device_type  'SMART 6000'
_diffrn_measurement_method       '\w and \f scans'
_diffrn_radiation_monochromator  'crossed G\"obel mirrors'
_diffrn_radiation_source         'fine-focus sealed tube'
_diffrn_radiation_type           CuK\a
_diffrn_radiation_wavelength     1.54178
_diffrn_reflns_av_R_equivalents  0.0503
_diffrn_reflns_av_sigmaI/netI    0.0417
_diffrn_reflns_limit_h_max       10
_diffrn_reflns_limit_h_min       -9
_diffrn_reflns_limit_k_max       10
_diffrn_reflns_limit_k_min       -10
_diffrn_reflns_limit_l_max       14
_diffrn_reflns_limit_l_min       -15
_diffrn_reflns_number            10750
_diffrn_reflns_theta_full        67.70
_diffrn_reflns_theta_max         71.48
_diffrn_reflns_theta_min         3.71
_exptl_absorpt_coefficient_mu    3.801
_exptl_absorpt_correction_T_max  0.387
_exptl_absorpt_correction_T_min  0.255
_exptl_absorpt_correction_type   multi-scan
_exptl_absorpt_process_details   'Bruker SADABS'
_exptl_crystal_colour            colourless
_exptl_crystal_density_diffrn    1.723
_exptl_crystal_density_method    'not measured'
_exptl_crystal_description       block
_exptl_crystal_F_000             432
_exptl_crystal_size_max          0.4
_exptl_crystal_size_mid          0.3
_exptl_crystal_size_min          0.25
_refine_diff_density_max         0.464
_refine_diff_density_min         -0.284
_refine_diff_density_rms         0.071
_refine_ls_extinction_method     none
_refine_ls_goodness_of_fit_ref   1.076
_refine_ls_hydrogen_treatment    constr
_refine_ls_matrix_type           full
_refine_ls_number_parameters     237
_refine_ls_number_reflns         3042
_refine_ls_number_restraints     39
_refine_ls_restrained_S_all      1.117
_refine_ls_R_factor_all          0.0451
_refine_ls_R_factor_gt           0.0382
_refine_ls_shift/su_max          0.001
_refine_ls_shift/su_mean         0.000
_refine_ls_structure_factor_coef Fsqd
_refine_ls_weighting_details
'calc w=1/[\s^2^(Fo^2^)+(0.0495P)^2^+0.2406P] where P=(Fo^2^+2Fc^2^)/3'
_refine_ls_weighting_scheme      calc
_refine_ls_wR_factor_gt          0.0941
_refine_ls_wR_factor_ref         0.0993
_reflns_number_gt                2610
_reflns_number_total             3042
_reflns_threshold_expression     >2sigma(I)
_cod_data_source_file            jp2027675_si_007.cif
_cod_data_source_block           wg226
_cod_database_code               1501715
loop_
_symmetry_equiv_pos_as_xyz
'x, y, z'
'-x, -y, -z'
loop_
_atom_site_label
_atom_site_type_symbol
_atom_site_fract_x
_atom_site_fract_y
_atom_site_fract_z
_atom_site_U_iso_or_equiv
_atom_site_adp_type
_atom_site_occupancy
_atom_site_symmetry_multiplicity
_atom_site_calc_flag
_atom_site_refinement_flags
C1 C 0.4740(3) 0.3149(3) 0.6660(2) 0.0270(5) Uani 1 1 d U
H1 H 0.4900 0.4223 0.6540 0.032 Uiso 1 1 calc R
C2 C 0.3930(4) 0.1841(4) 0.5756(2) 0.0399(7) Uani 1 1 d U
C3 C 0.3734(3) 0.0308(4) 0.5970(2) 0.0417(7) Uani 1 1 d U
H3 H 0.3170 -0.0625 0.5370 0.050 Uiso 1 1 calc R
C4 C 0.4347(3) 0.0116(3) 0.7046(3) 0.0339(6) Uani 1 1 d U
H4 H 0.4216 -0.0950 0.7176 0.041 Uiso 1 1 calc R
C5 C 0.5147(3) 0.1446(3) 0.7937(2) 0.0206(4) Uani 1 1 d U
C6 C 0.3318(6) 0.2172(6) 0.4612(3) 0.0717(12) Uani 1 1 d U
H6A H 0.2673 0.1140 0.4066 0.108 Uiso 1 1 calc R
H6B H 0.4338 0.2725 0.4397 0.108 Uiso 1 1 calc R
H6C H 0.2544 0.2868 0.4628 0.108 Uiso 1 1 calc R
C7 C 0.5797(4) 0.1276(3) 0.9116(2) 0.0313(6) Uani 1 1 d .
H7A H 0.7039 0.1909 0.9436 0.047 Uiso 1 1 calc R
H7B H 0.5670 0.0125 0.9120 0.047 Uiso 1 1 calc R
H7C H 0.5109 0.1683 0.9564 0.047 Uiso 1 1 calc R
C8 C 0.6232(3) 0.4380(3) 0.86565(19) 0.0226(5) Uani 1 1 d .
H8A H 0.5897 0.4150 0.9331 0.027 Uiso 1 1 calc R
H8B H 0.7516 0.4562 0.8825 0.027 Uiso 1 1 calc R
C9 C 0.5824(3) 0.5853(3) 0.8421(2) 0.0315(6) Uani 1 1 d .
C10 C 0.0345(3) 0.0654(3) 0.8379(2) 0.0244(5) Uani 1 1 d .
C11 C 0.0321(3) 0.6018(3) 0.7202(2) 0.0247(5) Uani 1 1 d .
N1 N 0.5307(2) 0.2943(2) 0.77076(15) 0.0174(4) Uani 1 1 d U
N2 N 0.5537(3) 0.7030(3) 0.8265(3) 0.0475(7) Uani 1 1 d .
N3 N -0.0653(2) 0.3205(2) 0.78143(17) 0.0229(4) Uani 1 1 d .
O1 O 0.0232(2) 0.3098(2) 0.97904(14) 0.0281(4) Uani 1 1 d .
O2 O 0.2568(2) 0.3548(2) 0.88718(14) 0.0248(4) Uani 1 1 d .
O3 O -0.1904(2) 0.3373(2) 0.58790(15) 0.0342(4) Uani 1 1 d .
O4 O 0.1222(2) 0.3479(2) 0.64683(16) 0.0327(4) Uani 1 1 d .
F1 F -0.12985(18) -0.01353(17) 0.82914(13) 0.0317(3) Uani 1 1 d .
F2 F 0.1426(2) 0.01932(19) 0.91559(15) 0.0412(4) Uani 1 1 d .
F3 F 0.0638(2) 0.02492(18) 0.74080(14) 0.0352(4) Uani 1 1 d .
F4 F -0.10289(19) 0.64500(17) 0.74219(13) 0.0318(3) Uani 1 1 d .
F5 F 0.16827(19) 0.65755(18) 0.81168(14) 0.0356(4) Uani 1 1 d .
F6 F 0.0713(2) 0.6697(2) 0.63895(15) 0.0403(4) Uani 1 1 d .
S1 S 0.07487(7) 0.28722(6) 0.87899(4) 0.02015(15) Uani 1 1 d .
S2 S -0.02662(7) 0.37845(7) 0.67443(5) 0.02224(16) Uani 1 1 d .
loop_
_atom_site_aniso_label
_atom_site_aniso_U_11
_atom_site_aniso_U_22
_atom_site_aniso_U_33
_atom_site_aniso_U_23
_atom_site_aniso_U_13
_atom_site_aniso_U_12
C1 0.0268(12) 0.0362(13) 0.0254(11) 0.0100(10) 0.0097(10) 0.0188(10)
C2 0.0290(13) 0.0657(18) 0.0254(12) -0.0051(12) 0.0028(11) 0.0295(13)
C3 0.0202(12) 0.0440(15) 0.0425(14) -0.0262(12) -0.0002(11) 0.0075(11)
C4 0.0221(12) 0.0190(12) 0.0550(16) -0.0064(11) 0.0135(12) 0.0026(9)
C5 0.0154(10) 0.0175(10) 0.0326(11) 0.0050(9) 0.0121(9) 0.0068(8)
C6 0.078(2) 0.113(3) 0.0303(14) 0.0018(16) 0.0018(16) 0.062(2)
C7 0.0364(14) 0.0324(14) 0.0376(13) 0.0159(11) 0.0195(12) 0.0188(11)
C8 0.0185(10) 0.0156(11) 0.0284(11) -0.0038(9) 0.0049(9) 0.0028(8)
C9 0.0220(11) 0.0188(12) 0.0502(15) -0.0004(11) 0.0135(11) 0.0017(9)
C10 0.0210(11) 0.0173(11) 0.0333(12) 0.0014(9) 0.0076(10) 0.0060(9)
C11 0.0231(11) 0.0197(11) 0.0313(12) 0.0052(9) 0.0099(10) 0.0048(9)
N1 0.0132(8) 0.0176(9) 0.0208(8) 0.0000(7) 0.0058(7) 0.0050(7)
N2 0.0341(13) 0.0182(11) 0.091(2) 0.0106(12) 0.0201(14) 0.0090(9)
N3 0.0171(9) 0.0181(9) 0.0331(10) 0.0032(8) 0.0077(8) 0.0059(7)
O1 0.0290(9) 0.0240(9) 0.0292(8) 0.0011(7) 0.0113(7) 0.0042(7)
O2 0.0182(8) 0.0217(8) 0.0316(8) 0.0029(7) 0.0060(7) 0.0036(6)
O3 0.0295(9) 0.0317(10) 0.0312(9) -0.0008(7) -0.0004(8) 0.0053(7)
O4 0.0336(10) 0.0376(10) 0.0349(9) 0.0073(8) 0.0177(8) 0.0179(8)
F1 0.0259(7) 0.0187(7) 0.0473(8) 0.0024(6) 0.0138(7) 0.0007(5)
F2 0.0384(9) 0.0272(8) 0.0545(10) 0.0126(7) 0.0014(8) 0.0138(7)
F3 0.0387(8) 0.0248(7) 0.0445(9) -0.0020(6) 0.0216(7) 0.0102(6)
F4 0.0330(8) 0.0250(7) 0.0429(8) 0.0071(6) 0.0150(7) 0.0149(6)
F5 0.0280(7) 0.0245(8) 0.0412(8) -0.0015(6) -0.0013(6) 0.0011(6)
F6 0.0475(9) 0.0347(9) 0.0463(9) 0.0187(7) 0.0241(8) 0.0095(7)
S1 0.0169(3) 0.0154(3) 0.0260(3) 0.0007(2) 0.0066(2) 0.00308(19)
S2 0.0194(3) 0.0201(3) 0.0247(3) -0.0003(2) 0.0055(2) 0.0055(2)
loop_
_atom_type_symbol
_atom_type_description
_atom_type_scat_dispersion_real
_atom_type_scat_dispersion_imag
_atom_type_scat_source
C C 0.0181 0.0091 'International Tables Vol C Tables 4.2.6.8 and 6.1.1.4'
H H 0.0000 0.0000 'International Tables Vol C Tables 4.2.6.8 and 6.1.1.4'
N N 0.0311 0.0180 'International Tables Vol C Tables 4.2.6.8 and 6.1.1.4'
O O 0.0492 0.0322 'International Tables Vol C Tables 4.2.6.8 and 6.1.1.4'
F F 0.0727 0.0534 'International Tables Vol C Tables 4.2.6.8 and 6.1.1.4'
S S 0.3331 0.5567 'International Tables Vol C Tables 4.2.6.8 and 6.1.1.4'
loop_
_geom_angle_atom_site_label_1
_geom_angle_atom_site_label_2
_geom_angle_atom_site_label_3
_geom_angle
N1 C1 C2 121.6(3)
N1 C1 H1 119.2
C2 C1 H1 119.2
C1 C2 C3 117.2(3)
C1 C2 C6 118.4(3)
C3 C2 C6 124.4(3)
C2 C3 C4 120.6(2)
C2 C3 H3 119.7
C4 C3 H3 119.7
C5 C4 C3 121.1(3)
C5 C4 H4 119.4
C3 C4 H4 119.4
N1 C5 C4 117.2(2)
N1 C5 C7 120.4(2)
C4 C5 C7 122.4(2)
C2 C6 H6A 109.5
C2 C6 H6B 109.5
H6A C6 H6B 109.5
C2 C6 H6C 109.5
H6A C6 H6C 109.5
H6B C6 H6C 109.5
C5 C7 H7A 109.5
C5 C7 H7B 109.5
H7A C7 H7B 109.5
C5 C7 H7C 109.5
H7A C7 H7C 109.5
H7B C7 H7C 109.5
C9 C8 N1 112.6(2)
C9 C8 H8A 109.1
N1 C8 H8A 109.1
C9 C8 H8B 109.1
N1 C8 H8B 109.1
H8A C8 H8B 107.8
N2 C9 C8 178.1(3)
F3 C10 F1 108.64(19)
F3 C10 F2 108.6(2)
F1 C10 F2 108.8(2)
F3 C10 S1 110.85(17)
F1 C10 S1 110.76(16)
F2 C10 S1 109.09(16)
F5 C11 F6 109.15(19)
F5 C11 F4 108.4(2)
F6 C11 F4 108.5(2)
F5 C11 S2 111.17(17)
F6 C11 S2 109.34(17)
F4 C11 S2 110.20(15)
C1 N1 C5 122.3(2)
C1 N1 C8 120.1(2)
C5 N1 C8 117.45(19)
S1 N3 S2 124.74(12)
O1 S1 O2 118.14(10)
O1 S1 N3 108.43(11)
O2 S1 N3 116.98(10)
O1 S1 C10 104.19(11)
O2 S1 C10 104.24(10)
N3 S1 C10 102.70(11)
O4 S2 O3 119.28(11)
O4 S2 N3 116.33(11)
O3 S2 N3 108.19(11)
O4 S2 C11 105.12(11)
O3 S2 C11 103.58(11)
N3 S2 C11 101.97(11)
loop_
_geom_bond_atom_site_label_1
_geom_bond_atom_site_label_2
_geom_bond_distance
C1 N1 1.343(3)
C1 C2 1.378(4)
C1 H1 0.9500
C2 C3 1.377(5)
C2 C6 1.503(4)
C3 C4 1.377(5)
C3 H3 0.9500
C4 C5 1.379(3)
C4 H4 0.9500
C5 N1 1.357(3)
C5 C7 1.494(3)
C6 H6A 0.9800
C6 H6B 0.9800
C6 H6C 0.9800
C7 H7A 0.9800
C7 H7B 0.9800
C7 H7C 0.9800
C8 C9 1.453(4)
C8 N1 1.485(3)
C8 H8A 0.9900
C8 H8B 0.9900
C9 N2 1.138(4)
C10 F3 1.318(3)
C10 F1 1.325(3)
C10 F2 1.331(3)
C10 S1 1.842(2)
C11 F5 1.321(3)
C11 F6 1.325(3)
C11 F4 1.330(3)
C11 S2 1.843(2)
N3 S1 1.579(2)
N3 S2 1.586(2)
O1 S1 1.4293(18)
O2 S1 1.4364(16)
O3 S2 1.4319(19)
O4 S2 1.4234(18)
