#------------------------------------------------------------------------------
#$Date: 2016-02-18 17:37:37 +0200 (Thu, 18 Feb 2016) $
#$Revision: 176729 $
#$URL: svn://www.crystallography.net/cod/cif/1/50/20/1502073.cif $
#------------------------------------------------------------------------------
#
# This file is available in the Crystallography Open Database (COD),
# http://www.crystallography.net/
#
# All data on this site have been placed in the public domain by the
# contributors.
#
data_1502073
loop_
_publ_author_name
'Kramer, S\/oren'
'Friis, Stig D.'
'Xin, Zhuo'
'Odabachian, Yann'
'Skrydstrup, Troels'
_publ_section_title
;
 Metal-free halonium mediated acetate shifts of ynamides to access \a-halo
 acrylamides/acrylimides.
;
_journal_issue                   7
_journal_name_full               'Organic letters'
_journal_page_first              1750
_journal_page_last               1753
_journal_paper_doi               10.1021/ol200269h
_journal_volume                  13
_journal_year                    2011
_chemical_formula_sum            'C27 H23 Br N2 O5 S'
_chemical_formula_weight         567.44
_chemical_name_systematic
; 
 ? 
;
_space_group_IT_number           14
_symmetry_cell_setting           monoclinic
_symmetry_space_group_name_Hall  '-P 2yn'
_symmetry_space_group_name_H-M   'P 1 21/n 1'
_atom_sites_solution_hydrogens   geom
_atom_sites_solution_primary     direct
_atom_sites_solution_secondary   difmap
_audit_creation_method           SHELXL-97
_cell_angle_alpha                90.00
_cell_angle_beta                 98.5892(10)
_cell_angle_gamma                90.00
_cell_formula_units_Z            4
_cell_length_a                   12.71437(13)
_cell_length_b                   9.95279(11)
_cell_length_c                   19.7029(2)
_cell_measurement_reflns_used    25437
_cell_measurement_temperature    100.0(2)
_cell_measurement_theta_max      29.2031
_cell_measurement_theta_min      2.2932
_cell_volume                     2465.31(5)
_computing_cell_refinement
;
CrysAlisPro, Oxford Diffraction Ltd.,
Version 1.171.34.39 (release 18-08-2010 CrysAlis171 .NET)
(compiled Aug 18 2010,17:42:00)
;
_computing_data_collection
;
CrysAlisPro, Oxford Diffraction Ltd.,
Version 1.171.34.39 (release 18-08-2010 CrysAlis171 .NET)
(compiled Aug 18 2010,17:42:00)
;
_computing_data_reduction
;
CrysAlisPro, Oxford Diffraction Ltd.,
Version 1.171.34.39 (release 18-08-2010 CrysAlis171 .NET)
(compiled Aug 18 2010,17:42:00)
;
_computing_structure_refinement  'SHELXL-97 (Sheldrick, 1997)'
_computing_structure_solution    'SHELXS-97 (Sheldrick, 1990)'
_diffrn_ambient_temperature      100(2)
_diffrn_detector_area_resol_mean 10.3590
_diffrn_measured_fraction_theta_full 0.999
_diffrn_measured_fraction_theta_max 0.954
_diffrn_measurement_device_type  'SuperNova, Single source at offset), Atlas'
_diffrn_measurement_method       '\w scans'
_diffrn_radiation_monochromator  mirror
_diffrn_radiation_source         'SuperNova (Mo) X-ray Source'
_diffrn_radiation_type           MoK\a
_diffrn_radiation_wavelength     0.71073
_diffrn_reflns_av_R_equivalents  0.0491
_diffrn_reflns_av_sigmaI/netI    0.0920
_diffrn_reflns_limit_h_max       17
_diffrn_reflns_limit_h_min       -17
_diffrn_reflns_limit_k_max       12
_diffrn_reflns_limit_k_min       -13
_diffrn_reflns_limit_l_max       26
_diffrn_reflns_limit_l_min       -27
_diffrn_reflns_number            58296
_diffrn_reflns_theta_full        25.00
_diffrn_reflns_theta_max         29.2031
_diffrn_reflns_theta_min         2.2932
_exptl_absorpt_coefficient_mu    1.794
_exptl_absorpt_correction_T_max  1.00000
_exptl_absorpt_correction_T_min  0.92680
_exptl_absorpt_correction_type   multi-scan
_exptl_absorpt_process_details
;
CrysAlisPro, Oxford Diffraction Ltd.,
Version 1.171.34.39 (release 18-08-2010 CrysAlis171 .NET)
(compiled Aug 18 2010,17:42:00)
Empirical absorption correction using spherical harmonics,
 implemented in SCALE3 ABSPACK scaling algorithm.
;
_exptl_crystal_colour            colourless
_exptl_crystal_density_diffrn    1.529
_exptl_crystal_density_method    'not measured'
_exptl_crystal_description       block
_exptl_crystal_F_000             1160
_exptl_crystal_size_max          0.20
_exptl_crystal_size_mid          0.18
_exptl_crystal_size_min          0.15
_refine_diff_density_max         2.273
_refine_diff_density_min         -1.544
_refine_diff_density_rms         0.096
_refine_ls_extinction_method     none
_refine_ls_goodness_of_fit_ref   1.531
_refine_ls_hydrogen_treatment    constr
_refine_ls_matrix_type           full
_refine_ls_number_parameters     326
_refine_ls_number_reflns         6412
_refine_ls_number_restraints     0
_refine_ls_restrained_S_all      1.531
_refine_ls_R_factor_all          0.0656
_refine_ls_R_factor_gt           0.0538
_refine_ls_shift/su_max          0.000
_refine_ls_shift/su_mean         0.000
_refine_ls_structure_factor_coef Fsqd
_refine_ls_weighting_details
'calc w=1/[\s^2^(Fo^2^)+(0.1000P)^2^+0.0000P] where P=(Fo^2^+2Fc^2^)/3'
_refine_ls_weighting_scheme      calc
_refine_ls_wR_factor_gt          0.1942
_refine_ls_wR_factor_ref         0.2023
_reflns_number_gt                5465
_reflns_number_total             6412
_reflns_threshold_expression     >2sigma(I)
_cod_data_source_file            ol200269h_si_003.cif
_cod_data_source_block           shelxl
_cod_database_code               1502073
loop_
_symmetry_equiv_pos_as_xyz
'x, y, z'
'-x+1/2, y+1/2, -z+1/2'
'-x, -y, -z'
'x-1/2, -y-1/2, z-1/2'
loop_
_atom_site_label
_atom_site_type_symbol
_atom_site_fract_x
_atom_site_fract_y
_atom_site_fract_z
_atom_site_U_iso_or_equiv
_atom_site_adp_type
_atom_site_occupancy
_atom_site_symmetry_multiplicity
_atom_site_calc_flag
_atom_site_refinement_flags
Br Br 0.27302(3) 0.34929(4) 0.211652(17) 0.03572(17) Uani 1 1 d .
S S -0.02011(5) 0.29902(7) 0.38743(4) 0.0212(2) Uani 1 1 d .
O1 O -0.0655(2) 0.6708(2) -0.00915(12) 0.0318(6) Uani 1 1 d .
O2 O 0.20811(17) 0.9161(2) 0.10737(12) 0.0303(5) Uani 1 1 d .
C6 C 0.0432(3) 0.8486(3) -0.04809(17) 0.0243(6) Uani 1 1 d .
C15 C -0.0195(2) 0.6326(3) 0.33085(15) 0.0185(6) Uani 1 1 d .
N1 N 0.0684(2) 0.7765(3) 0.06399(13) 0.0227(5) Uani 1 1 d .
C8 C 0.1436(2) 0.8782(3) 0.05992(16) 0.0235(6) Uani 1 1 d .
C23 C 0.1939(3) 0.2249(3) 0.55324(16) 0.0250(6) Uani 1 1 d .
H23 H 0.2216 0.2703 0.5932 0.030 Uiso 1 1 calc R
C7 C 0.0055(2) 0.7524(3) 0.00096(16) 0.0243(6) Uani 1 1 d .
C4 C 0.1768(3) 1.0224(3) -0.04429(19) 0.0320(7) Uani 1 1 d .
H4 H 0.2315 1.0730 -0.0202 0.038 Uiso 1 1 calc R
C22 C 0.1161(2) 0.2858(3) 0.50604(15) 0.0234(6) Uani 1 1 d .
H22 H 0.0910 0.3710 0.5145 0.028 Uiso 1 1 calc R
C5 C 0.1253(2) 0.9251(3) -0.01265(16) 0.0236(6) Uani 1 1 d .
C17 C -0.0782(3) 0.8633(3) 0.3158(2) 0.0288(7) Uani 1 1 d .
H17 H -0.0661 0.9544 0.3241 0.035 Uiso 1 1 calc R
C26 C 0.1143(3) 0.0917(3) 0.43277(17) 0.0286(7) Uani 1 1 d .
H26 H 0.0892 0.0479 0.3919 0.034 Uiso 1 1 calc R
C21 C 0.0767(2) 0.2179(3) 0.44630(15) 0.0210(6) Uani 1 1 d .
C16 C -0.0019(2) 0.7695(3) 0.34283(17) 0.0230(6) Uani 1 1 d .
H16 H 0.0611 0.7983 0.3690 0.028 Uiso 1 1 calc R
C20 C -0.1153(2) 0.5920(3) 0.29201(15) 0.0216(6) Uani 1 1 d .
H20 H -0.1283 0.5009 0.2843 0.026 Uiso 1 1 calc R
C18 C -0.1718(3) 0.8217(3) 0.27661(18) 0.0285(7) Uani 1 1 d .
H18 H -0.2218 0.8850 0.2581 0.034 Uiso 1 1 calc R
C19 C -0.1917(2) 0.6851(3) 0.26463(17) 0.0256(6) Uani 1 1 d .
H19 H -0.2550 0.6568 0.2388 0.031 Uiso 1 1 calc R
C24 C 0.2302(3) 0.0976(4) 0.54129(16) 0.0293(7) Uani 1 1 d .
C1 C 0.0085(3) 0.8672(3) -0.11772(18) 0.0305(7) Uani 1 1 d .
H1 H -0.0472 0.8172 -0.1412 0.037 Uiso 1 1 calc R
C25 C 0.1900(3) 0.0320(3) 0.48111(17) 0.0317(7) Uani 1 1 d .
H25 H 0.2142 -0.0539 0.4730 0.038 Uiso 1 1 calc R
C3 C 0.1434(3) 1.0418(4) -0.11418(19) 0.0359(8) Uani 1 1 d .
H3 H 0.1763 1.1075 -0.1372 0.043 Uiso 1 1 calc R
C2 C 0.0616(3) 0.9650(3) -0.15066(19) 0.0348(8) Uani 1 1 d .
H2 H 0.0424 0.9791 -0.1975 0.042 Uiso 1 1 calc R
C27 C 0.3141(3) 0.0339(4) 0.59391(18) 0.0377(8) Uani 1 1 d .
H27B H 0.2841 -0.0417 0.6144 0.057 Uiso 1 1 calc R
H27C H 0.3391 0.0986 0.6288 0.057 Uiso 1 1 calc R
H27A H 0.3726 0.0044 0.5719 0.057 Uiso 1 1 calc R
O3 O 0.1154(2) 0.2059(2) 0.29258(12) 0.0295(5) Uani 1 1 d .
N2 N 0.04649(19) 0.3946(2) 0.33697(13) 0.0197(5) Uani 1 1 d .
C14 C 0.0678(2) 0.5349(3) 0.35785(15) 0.0189(6) Uani 1 1 d .
H14A H 0.1331 0.5634 0.3422 0.023 Uiso 1 1 calc R
H14B H 0.0793 0.5393 0.4076 0.023 Uiso 1 1 calc R
C12 C 0.1432(2) 0.4114(3) 0.23702(15) 0.0219(6) Uani 1 1 d .
C11 C 0.0881(2) 0.5063(3) 0.20051(15) 0.0220(6) Uani 1 1 d .
H11A H 0.0239 0.5305 0.2143 0.026 Uiso 1 1 calc R
C13 C 0.1034(3) 0.3281(3) 0.29086(16) 0.0226(6) Uani 1 1 d .
C10 C 0.1171(2) 0.5789(3) 0.13963(16) 0.0248(6) Uani 1 1 d .
H10A H 0.1028 0.5220 0.0994 0.030 Uiso 1 1 calc R
H10B H 0.1924 0.5998 0.1473 0.030 Uiso 1 1 calc R
C9 C 0.0530(2) 0.7086(3) 0.12742(15) 0.0222(6) Uani 1 1 d .
H9A H -0.0219 0.6880 0.1258 0.027 Uiso 1 1 calc R
H9B H 0.0735 0.7689 0.1658 0.027 Uiso 1 1 calc R
O4 O -0.07997(19) 0.2018(2) 0.34436(13) 0.0316(5) Uani 1 1 d .
O5 O -0.07398(17) 0.3950(2) 0.42413(12) 0.0268(5) Uani 1 1 d .
loop_
_atom_site_aniso_label
_atom_site_aniso_U_11
_atom_site_aniso_U_22
_atom_site_aniso_U_33
_atom_site_aniso_U_23
_atom_site_aniso_U_13
_atom_site_aniso_U_12
Br 0.0318(2) 0.0446(3) 0.0324(2) 0.00777(13) 0.00992(16) 0.02046(14)
S 0.0160(3) 0.0153(3) 0.0308(4) 0.0023(3) -0.0017(3) 0.0014(2)
O1 0.0352(13) 0.0302(12) 0.0282(13) -0.0009(9) -0.0014(10) -0.0111(10)
O2 0.0194(10) 0.0340(13) 0.0357(13) 0.0035(10) -0.0013(9) -0.0076(9)
C6 0.0269(16) 0.0225(15) 0.0242(16) 0.0017(11) 0.0063(12) 0.0036(11)
C15 0.0182(13) 0.0154(13) 0.0219(14) -0.0001(10) 0.0029(11) 0.0012(10)
N1 0.0193(12) 0.0251(13) 0.0232(13) 0.0016(10) 0.0017(10) -0.0029(10)
C8 0.0193(14) 0.0234(14) 0.0280(16) 0.0022(12) 0.0046(12) 0.0017(11)
C23 0.0279(15) 0.0274(15) 0.0200(14) 0.0047(12) 0.0040(12) 0.0015(12)
C7 0.0246(14) 0.0254(15) 0.0234(14) 0.0001(12) 0.0048(11) -0.0022(12)
C4 0.0232(15) 0.0298(17) 0.044(2) 0.0067(14) 0.0100(14) 0.0003(13)
C22 0.0254(14) 0.0238(14) 0.0219(15) -0.0001(11) 0.0065(11) 0.0025(12)
C5 0.0190(13) 0.0238(15) 0.0291(15) 0.0041(12) 0.0072(11) 0.0042(11)
C17 0.0324(17) 0.0136(14) 0.0421(19) 0.0045(12) 0.0108(15) 0.0047(11)
C26 0.0363(17) 0.0226(15) 0.0255(16) -0.0015(12) 0.0003(13) 0.0039(13)
C21 0.0195(13) 0.0177(13) 0.0257(15) 0.0016(11) 0.0030(11) 0.0025(11)
C16 0.0222(14) 0.0153(13) 0.0320(16) -0.0015(11) 0.0058(12) -0.0005(11)
C20 0.0172(13) 0.0185(13) 0.0276(15) -0.0016(11) -0.0016(11) 0.0021(11)
C18 0.0275(16) 0.0238(15) 0.0357(18) 0.0084(13) 0.0103(13) 0.0135(13)
C19 0.0202(14) 0.0297(16) 0.0255(15) 0.0007(12) -0.0011(12) 0.0078(12)
C24 0.0247(15) 0.0402(18) 0.0235(15) 0.0062(13) 0.0057(12) 0.0111(14)
C1 0.0359(18) 0.0303(17) 0.0256(16) 0.0022(12) 0.0059(14) 0.0058(14)
C25 0.0362(18) 0.0287(16) 0.0298(17) -0.0004(13) 0.0035(14) 0.0153(14)
C3 0.0359(18) 0.0341(18) 0.041(2) 0.0132(15) 0.0174(15) 0.0052(15)
C2 0.0412(19) 0.0328(18) 0.0321(17) 0.0079(14) 0.0110(14) 0.0097(15)
C27 0.0362(19) 0.048(2) 0.0270(17) 0.0012(15) -0.0014(14) 0.0206(16)
O3 0.0420(14) 0.0175(10) 0.0285(12) 0.0000(9) 0.0033(10) 0.0106(9)
N2 0.0194(12) 0.0133(11) 0.0248(13) 0.0009(9) -0.0013(9) 0.0037(9)
C14 0.0159(12) 0.0152(12) 0.0241(14) -0.0021(10) -0.0020(10) -0.0002(10)
C12 0.0196(13) 0.0238(14) 0.0218(14) -0.0026(11) 0.0011(11) 0.0059(11)
C11 0.0210(14) 0.0205(14) 0.0245(14) -0.0024(11) 0.0032(11) 0.0040(11)
C13 0.0248(14) 0.0187(13) 0.0223(14) -0.0005(11) -0.0032(12) 0.0079(11)
C10 0.0228(14) 0.0261(15) 0.0257(15) 0.0006(12) 0.0041(12) 0.0017(12)
C9 0.0205(13) 0.0244(14) 0.0216(14) 0.0006(11) 0.0033(11) -0.0022(11)
O4 0.0261(11) 0.0228(11) 0.0409(14) 0.0026(10) -0.0111(10) -0.0068(9)
O5 0.0196(10) 0.0202(10) 0.0417(13) 0.0040(9) 0.0082(9) 0.0053(8)
loop_
_atom_type_symbol
_atom_type_description
_atom_type_scat_dispersion_real
_atom_type_scat_dispersion_imag
_atom_type_scat_source
C C 0.0033 0.0016 'International Tables Vol C Tables 4.2.6.8 and 6.1.1.4'
H H 0.0000 0.0000 'International Tables Vol C Tables 4.2.6.8 and 6.1.1.4'
N N 0.0061 0.0033 'International Tables Vol C Tables 4.2.6.8 and 6.1.1.4'
O O 0.0106 0.0060 'International Tables Vol C Tables 4.2.6.8 and 6.1.1.4'
S S 0.1246 0.1234 'International Tables Vol C Tables 4.2.6.8 and 6.1.1.4'
Br Br -0.2901 2.4595 'International Tables Vol C Tables 4.2.6.8 and 6.1.1.4'
loop_
_geom_angle_atom_site_label_1
_geom_angle_atom_site_label_2
_geom_angle_atom_site_label_3
_geom_angle
O4 S O5 119.92(14)
O4 S N2 107.50(14)
O5 S N2 103.94(13)
O4 S C21 109.82(13)
O5 S C21 108.29(14)
N2 S C21 106.49(13)
C1 C6 C5 121.8(3)
C1 C6 C7 129.8(3)
C5 C6 C7 108.4(3)
C16 C15 C20 118.7(3)
C16 C15 C14 118.5(2)
C20 C15 C14 122.8(2)
C7 N1 C8 112.3(3)
C7 N1 C9 123.4(2)
C8 N1 C9 124.3(2)
O2 C8 N1 124.8(3)
O2 C8 C5 129.5(3)
N1 C8 C5 105.7(3)
C24 C23 C22 120.5(3)
O1 C7 N1 125.3(3)
O1 C7 C6 129.1(3)
N1 C7 C6 105.6(3)
C5 C4 C3 116.9(3)
C21 C22 C23 119.1(3)
C4 C5 C6 122.1(3)
C4 C5 C8 129.9(3)
C6 C5 C8 108.0(3)
C18 C17 C16 120.3(3)
C25 C26 C21 118.9(3)
C26 C21 C22 121.0(3)
C26 C21 S 121.2(2)
C22 C21 S 117.8(2)
C17 C16 C15 120.3(3)
C19 C20 C15 121.4(3)
C17 C18 C19 120.4(3)
C20 C19 C18 118.9(3)
C23 C24 C25 119.3(3)
C23 C24 C27 119.2(3)
C25 C24 C27 121.5(3)
C6 C1 C2 116.5(3)
C26 C25 C24 121.2(3)
C4 C3 C2 121.7(3)
C1 C2 C3 121.0(3)
C13 N2 C14 122.4(3)
C13 N2 S 117.8(2)
C14 N2 S 117.2(2)
N2 C14 C15 114.7(2)
C11 C12 C13 125.1(3)
C11 C12 Br 120.0(2)
C13 C12 Br 114.0(2)
C12 C11 C10 127.5(3)
O3 C13 N2 121.5(3)
O3 C13 C12 121.1(3)
N2 C13 C12 117.3(2)
C11 C10 C9 110.3(3)
N1 C9 C10 113.0(3)
loop_
_geom_bond_atom_site_label_1
_geom_bond_atom_site_label_2
_geom_bond_distance
Br C12 1.898(3)
S O4 1.429(2)
S O5 1.433(2)
S N2 1.692(3)
S C21 1.757(3)
O1 C7 1.208(4)
O2 C8 1.208(4)
C6 C1 1.389(5)
C6 C5 1.392(4)
C6 C7 1.490(4)
C15 C16 1.395(4)
C15 C20 1.398(4)
C15 C14 1.511(4)
N1 C7 1.394(4)
N1 C8 1.402(4)
N1 C9 1.460(4)
C8 C5 1.489(4)
C23 C24 1.381(5)
C23 C22 1.391(4)
C4 C5 1.370(5)
C4 C3 1.393(5)
C22 C21 1.385(4)
C17 C18 1.382(5)
C17 C16 1.394(4)
C26 C25 1.383(5)
C26 C21 1.384(4)
C20 C19 1.391(4)
C18 C19 1.396(5)
C24 C25 1.383(5)
C24 C27 1.512(4)
C1 C2 1.399(5)
C3 C2 1.400(6)
O3 C13 1.225(4)
N2 C13 1.408(4)
N2 C14 1.470(4)
C12 C11 1.323(4)
C12 C13 1.493(5)
C11 C10 1.493(4)
C10 C9 1.525(4)
