#------------------------------------------------------------------------------
#$Date: 2016-02-18 17:37:37 +0200 (Thu, 18 Feb 2016) $
#$Revision: 176729 $
#$URL: svn://www.crystallography.net/cod/cif/1/50/46/1504642.cif $
#------------------------------------------------------------------------------
#
# This file is available in the Crystallography Open Database (COD),
# http://www.crystallography.net/
#
# All data on this site have been placed in the public domain by the
# contributors.
#
data_1504642
loop_
_publ_author_name
'Maji, Modhu Sudan'
'Fr\"ohlich, Roland'
'Studer, Armido'
_publ_section_title
;
 Desymmetrization of metallated cyclohexadienes with chiral
 N-tert-butanesulfinyl imines.
;
_journal_issue                   9
_journal_name_full               'Organic letters'
_journal_page_first              1847
_journal_page_last               1850
_journal_paper_doi               10.1021/ol800478q
_journal_volume                  10
_journal_year                    2008
_chemical_absolute_configuration ad
_chemical_formula_sum            'C18 H25 N O2 S'
_chemical_formula_weight         319.45
_chemical_name_systematic
; 
 ? 
;
_space_group_IT_number           19
_symmetry_cell_setting           orthorhombic
_symmetry_space_group_name_Hall  'P 2ac 2ab'
_symmetry_space_group_name_H-M   'P 21 21 21'
_atom_sites_solution_hydrogens   'at N3 from difmap, other geom'
_atom_sites_solution_primary     direct
_atom_sites_solution_secondary   difmap
_audit_creation_method           SHELXL-97
_cell_angle_alpha                90.00
_cell_angle_beta                 90.00
_cell_angle_gamma                90.00
_cell_formula_units_Z            4
_cell_length_a                   5.4766(1)
_cell_length_b                   11.8487(1)
_cell_length_c                   26.9318(1)
_cell_measurement_reflns_used    2179
_cell_measurement_temperature    223(2)
_cell_measurement_theta_max      68.25
_cell_measurement_theta_min      0.88
_cell_volume                     1747.62(4)
_computing_cell_refinement       'Collect (Nonius B.V., 1998)'
_computing_data_collection       'Collect (Nonius B.V., 1998)'
_computing_data_reduction        'Denzo-SMN (Otwinowski & Minor, 1997)'
_computing_molecular_graphics    'XP (BrukerAXS, 2000)'
_computing_publication_material  'SHELXL-97 (Sheldrick, 1997)'
_computing_structure_refinement  'SHELXL-97 (Sheldrick, 1997)'
_computing_structure_solution    'SHELXS-97 (Sheldrick, 1990)'
_diffrn_ambient_temperature      223(2)
_diffrn_measured_fraction_theta_full 0.972
_diffrn_measured_fraction_theta_max 0.972
_diffrn_measurement_device_type  'Nonius KappaCCD APEXII'
_diffrn_measurement_method       '\w and \f scans'
_diffrn_radiation_monochromator  graphite
_diffrn_radiation_source         'fine-focus sealed tube'
_diffrn_radiation_type           CuK\a
_diffrn_radiation_wavelength     1.54178
_diffrn_reflns_av_R_equivalents  0.057
_diffrn_reflns_av_sigmaI/netI    0.0475
_diffrn_reflns_limit_h_max       6
_diffrn_reflns_limit_h_min       -6
_diffrn_reflns_limit_k_max       13
_diffrn_reflns_limit_k_min       -13
_diffrn_reflns_limit_l_max       31
_diffrn_reflns_limit_l_min       -31
_diffrn_reflns_number            7261
_diffrn_reflns_theta_full        67.35
_diffrn_reflns_theta_max         67.35
_diffrn_reflns_theta_min         4.08
_exptl_absorpt_coefficient_mu    1.690
_exptl_absorpt_correction_T_max  0.9510
_exptl_absorpt_correction_T_min  0.6773
_exptl_absorpt_correction_type   multi-scan
_exptl_absorpt_process_details
'Denzo (Otwinowski, Borek, Majewski & Minor, 2003)'
_exptl_crystal_colour            colorless
_exptl_crystal_density_diffrn    1.214
_exptl_crystal_density_method    'not measured'
_exptl_crystal_description       plate
_exptl_crystal_F_000             688
_exptl_crystal_size_max          0.25
_exptl_crystal_size_mid          0.15
_exptl_crystal_size_min          0.03
_refine_diff_density_max         0.197
_refine_diff_density_min         -0.264
_refine_diff_density_rms         0.051
_refine_ls_abs_structure_details 'Flack H D (1983), Acta Cryst. A39, 876-881'
_refine_ls_abs_structure_Flack   -0.04(3)
_refine_ls_extinction_method     none
_refine_ls_goodness_of_fit_ref   1.003
_refine_ls_hydrogen_treatment    mixed
_refine_ls_matrix_type           full
_refine_ls_number_parameters     206
_refine_ls_number_reflns         2928
_refine_ls_number_restraints     0
_refine_ls_restrained_S_all      1.003
_refine_ls_R_factor_all          0.0645
_refine_ls_R_factor_gt           0.0510
_refine_ls_shift/su_max          0.000
_refine_ls_shift/su_mean         0.000
_refine_ls_structure_factor_coef Fsqd
_refine_ls_weighting_details
'calc w=1/[\s^2^(Fo^2^)+(0.0410P)^2^+1.9457P] where P=(Fo^2^+2Fc^2^)/3'
_refine_ls_weighting_scheme      calc
_refine_ls_wR_factor_gt          0.1103
_refine_ls_wR_factor_ref         0.1201
_reflns_number_gt                2497
_reflns_number_total             2928
_reflns_threshold_expression     >2sigma(I)
_cod_data_source_file            ol800478q-file005.cif
_cod_data_source_block           stu4248
_cod_original_sg_symbol_H-M      P212121
_cod_database_code               1504642
loop_
_symmetry_equiv_pos_as_xyz
'x, y, z'
'-x+1/2, -y, z+1/2'
'-x, y+1/2, -z+1/2'
'x+1/2, -y+1/2, -z'
loop_
_atom_site_label
_atom_site_type_symbol
_atom_site_fract_x
_atom_site_fract_y
_atom_site_fract_z
_atom_site_U_iso_or_equiv
_atom_site_adp_type
_atom_site_occupancy
_atom_site_symmetry_multiplicity
_atom_site_calc_flag
_atom_site_refinement_flags
S1 S 0.76007(16) 0.16188(6) 0.12522(3) 0.0308(2) Uani 1 1 d .
O2 O 0.9241(5) 0.1116(2) 0.08704(10) 0.0425(7) Uani 1 1 d .
N3 N 0.5004(6) 0.0932(2) 0.13169(12) 0.0359(7) Uani 1 1 d .
H3 H 0.406(7) 0.093(3) 0.1064(15) 0.043 Uiso 1 1 d .
C4 C 0.4962(7) -0.0132(3) 0.16066(13) 0.0332(8) Uani 1 1 d .
H4 H 0.6470 -0.0170 0.1809 0.040 Uiso 1 1 calc R
C5 C 0.2749(8) -0.0082(3) 0.19621(12) 0.0351(8) Uani 1 1 d .
H5 H 0.1300 0.0072 0.1753 0.042 Uiso 1 1 calc R
C6 C 0.2919(9) 0.0879(3) 0.23322(14) 0.0464(10) Uani 1 1 d .
H6A H 0.4466 0.0825 0.2514 0.056 Uiso 1 1 calc R
H6B H 0.2906 0.1600 0.2153 0.056 Uiso 1 1 calc R
C7 C 0.0853(9) 0.0855(4) 0.26920(15) 0.0527(11) Uani 1 1 d .
H7 H 0.0245 0.1534 0.2823 0.063 Uiso 1 1 calc R
C8 C -0.0128(9) -0.0114(4) 0.28275(15) 0.0537(11) Uani 1 1 d .
H8 H -0.1446 -0.0123 0.3051 0.064 Uiso 1 1 calc R
C9 C 0.0821(8) -0.1162(3) 0.26327(15) 0.0524(11) Uani 1 1 d .
H9 H 0.0433 -0.1846 0.2790 0.063 Uiso 1 1 calc R
C10 C 0.2244(8) -0.1164(3) 0.22311(13) 0.0430(9) Uani 1 1 d .
H10 H 0.2928 -0.1843 0.2117 0.052 Uiso 1 1 calc R
C11 C 0.6265(6) 0.2885(3) 0.09522(13) 0.0309(8) Uani 1 1 d .
C12 C 0.4580(7) 0.3466(3) 0.13249(14) 0.0400(9) Uani 1 1 d .
H12A H 0.4086 0.4195 0.1195 0.060 Uiso 1 1 calc R
H12B H 0.5439 0.3570 0.1637 0.060 Uiso 1 1 calc R
H12C H 0.3146 0.3002 0.1380 0.060 Uiso 1 1 calc R
C13 C 0.8440(7) 0.3649(3) 0.08329(15) 0.0405(9) Uani 1 1 d .
H13A H 0.9566 0.3251 0.0617 0.061 Uiso 1 1 calc R
H13B H 0.9267 0.3853 0.1138 0.061 Uiso 1 1 calc R
H13C H 0.7865 0.4327 0.0668 0.061 Uiso 1 1 calc R
C14 C 0.4973(7) 0.2554(3) 0.04762(13) 0.0375(9) Uani 1 1 d .
H14A H 0.3474 0.2158 0.0556 0.056 Uiso 1 1 calc R
H14B H 0.6026 0.2066 0.0282 0.056 Uiso 1 1 calc R
H14C H 0.4594 0.3227 0.0286 0.056 Uiso 1 1 calc R
C15 C 0.4869(6) -0.1169(3) 0.12743(14) 0.0350(8) Uani 1 1 d .
C16 C 0.6576(7) -0.2023(3) 0.13227(16) 0.0444(10) Uani 1 1 d .
H16 H 0.7839 -0.1949 0.1557 0.053 Uiso 1 1 calc R
C17 C 0.6451(8) -0.2992(3) 0.10301(16) 0.0506(11) Uani 1 1 d .
H17 H 0.7629 -0.3563 0.1067 0.061 Uiso 1 1 calc R
C18 C 0.4610(8) -0.3114(3) 0.06871(15) 0.0426(9) Uani 1 1 d .
C19 C 0.2887(8) -0.2268(3) 0.06357(14) 0.0430(10) Uani 1 1 d .
H19 H 0.1612 -0.2347 0.0405 0.052 Uiso 1 1 calc R
C20 C 0.3045(7) -0.1305(3) 0.09253(14) 0.0412(9) Uani 1 1 d .
H20 H 0.1882 -0.0730 0.0883 0.049 Uiso 1 1 calc R
O21 O 0.4632(6) -0.4095(2) 0.04168(10) 0.0564(8) Uani 1 1 d .
C22 C 0.2744(10) -0.4261(3) 0.00657(15) 0.0564(12) Uani 1 1 d .
H22A H 0.1185 -0.4295 0.0236 0.085 Uiso 1 1 calc R
H22B H 0.3020 -0.4963 -0.0111 0.085 Uiso 1 1 calc R
H22C H 0.2732 -0.3639 -0.0169 0.085 Uiso 1 1 calc R
loop_
_atom_site_aniso_label
_atom_site_aniso_U_11
_atom_site_aniso_U_22
_atom_site_aniso_U_33
_atom_site_aniso_U_23
_atom_site_aniso_U_13
_atom_site_aniso_U_12
S1 0.0282(4) 0.0291(4) 0.0350(4) 0.0010(3) -0.0017(5) 0.0016(4)
O2 0.0374(15) 0.0373(14) 0.0529(16) -0.0022(12) 0.0097(13) 0.0084(12)
N3 0.0354(18) 0.0327(15) 0.0396(17) 0.0070(14) -0.0046(16) -0.0019(14)
C4 0.035(2) 0.0295(17) 0.0354(19) 0.0047(15) -0.0030(18) -0.0012(16)
C5 0.037(2) 0.0342(17) 0.0341(18) 0.0059(14) -0.0030(19) 0.0010(18)
C6 0.059(3) 0.0339(18) 0.047(2) 0.0013(16) 0.003(2) -0.006(2)
C7 0.065(3) 0.054(3) 0.038(2) 0.002(2) 0.007(2) 0.008(2)
C8 0.055(3) 0.069(3) 0.037(2) 0.008(2) 0.007(2) -0.004(2)
C9 0.066(3) 0.048(2) 0.043(2) 0.0132(19) -0.001(2) -0.014(2)
C10 0.052(3) 0.0352(18) 0.042(2) 0.0031(15) -0.004(2) -0.005(2)
C11 0.0299(19) 0.0296(17) 0.0330(19) 0.0022(15) -0.0007(16) 0.0028(15)
C12 0.036(2) 0.0409(19) 0.043(2) 0.0000(18) -0.0003(18) 0.0097(17)
C13 0.035(2) 0.0330(19) 0.053(2) 0.0036(17) 0.0014(18) -0.0009(15)
C14 0.037(2) 0.043(2) 0.0328(18) 0.0056(16) -0.0035(19) -0.0028(17)
C15 0.0325(19) 0.0349(17) 0.0378(19) 0.0024(16) 0.000(2) 0.0014(15)
C16 0.040(2) 0.042(2) 0.052(2) 0.0059(18) -0.013(2) 0.0077(17)
C17 0.056(3) 0.036(2) 0.060(3) 0.0010(19) -0.011(2) 0.0176(19)
C18 0.049(2) 0.033(2) 0.046(2) 0.0008(16) 0.000(2) 0.0021(18)
C19 0.040(3) 0.040(2) 0.049(2) -0.0024(17) -0.006(2) 0.0022(19)
C20 0.037(2) 0.0355(19) 0.051(2) -0.0033(16) -0.0058(19) 0.0086(16)
O21 0.077(2) 0.0342(14) 0.0582(17) -0.0093(13) -0.0171(18) 0.0117(15)
C22 0.075(3) 0.039(2) 0.055(2) -0.0066(18) -0.005(3) -0.004(3)
loop_
_atom_type_symbol
_atom_type_description
_atom_type_scat_dispersion_real
_atom_type_scat_dispersion_imag
_atom_type_scat_source
C C 0.0181 0.0091 'International Tables Vol C Tables 4.2.6.8 and 6.1.1.4'
H H 0.0000 0.0000 'International Tables Vol C Tables 4.2.6.8 and 6.1.1.4'
N N 0.0311 0.0180 'International Tables Vol C Tables 4.2.6.8 and 6.1.1.4'
O O 0.0492 0.0322 'International Tables Vol C Tables 4.2.6.8 and 6.1.1.4'
S S 0.3331 0.5567 'International Tables Vol C Tables 4.2.6.8 and 6.1.1.4'
loop_
_geom_angle_atom_site_label_1
_geom_angle_atom_site_label_2
_geom_angle_atom_site_label_3
_geom_angle
O2 S1 N3 113.34(15)
O2 S1 C11 105.11(15)
N3 S1 C11 96.02(15)
C4 N3 S1 119.3(3)
N3 C4 C15 112.2(3)
N3 C4 C5 107.8(3)
C15 C4 C5 111.7(3)
C10 C5 C6 109.7(3)
C10 C5 C4 114.3(3)
C6 C5 C4 112.8(3)
C7 C6 C5 111.5(3)
C8 C7 C6 120.4(4)
C7 C8 C9 120.1(4)
C10 C9 C8 120.5(4)
C9 C10 C5 119.9(4)
C14 C11 C12 113.0(3)
C14 C11 C13 109.8(3)
C12 C11 C13 110.0(3)
C14 C11 S1 110.1(2)
C12 C11 S1 108.5(2)
C13 C11 S1 105.2(2)
C20 C15 C16 117.9(3)
C20 C15 C4 121.3(3)
C16 C15 C4 120.8(3)
C15 C16 C17 121.1(4)
C18 C17 C16 120.2(4)
O21 C18 C17 116.1(3)
O21 C18 C19 124.5(4)
C17 C18 C19 119.4(3)
C18 C19 C20 119.9(4)
C15 C20 C19 121.7(3)
C18 O21 C22 117.8(3)
loop_
_geom_bond_atom_site_label_1
_geom_bond_atom_site_label_2
_geom_bond_distance
S1 O2 1.490(3)
S1 N3 1.648(3)
S1 C11 1.854(3)
N3 C4 1.484(4)
C4 C15 1.521(5)
C4 C5 1.546(5)
C5 C10 1.498(5)
C5 C6 1.516(5)
C6 C7 1.490(6)
C7 C8 1.320(6)
C8 C9 1.444(6)
C9 C10 1.333(6)
C11 C14 1.516(5)
C11 C12 1.527(5)
C11 C13 1.530(5)
C15 C20 1.381(5)
C15 C16 1.384(5)
C16 C17 1.394(6)
C17 C18 1.376(6)
C18 O21 1.371(4)
C18 C19 1.384(5)
C19 C20 1.385(5)
O21 C22 1.415(5)
loop_
_geom_torsion_atom_site_label_1
_geom_torsion_atom_site_label_2
_geom_torsion_atom_site_label_3
_geom_torsion_atom_site_label_4
_geom_torsion
O2 S1 N3 C4 78.4(3)
C11 S1 N3 C4 -172.3(3)
S1 N3 C4 C15 -102.9(3)
S1 N3 C4 C5 133.7(3)
N3 C4 C5 C10 171.8(3)
C15 C4 C5 C10 48.2(4)
N3 C4 C5 C6 -62.0(4)
C15 C4 C5 C6 174.4(3)
C10 C5 C6 C7 -47.3(5)
C4 C5 C6 C7 -175.9(3)
C5 C6 C7 C8 31.7(6)
C6 C7 C8 C9 0.9(7)
C7 C8 C9 C10 -16.7(7)
C8 C9 C10 C5 -3.5(6)
C6 C5 C10 C9 35.2(6)
C4 C5 C10 C9 163.1(4)
O2 S1 C11 C14 56.9(3)
N3 S1 C11 C14 -59.3(3)
O2 S1 C11 C12 -179.0(2)
N3 S1 C11 C12 64.8(3)
O2 S1 C11 C13 -61.4(3)
N3 S1 C11 C13 -177.5(3)
N3 C4 C15 C20 -55.9(5)
C5 C4 C15 C20 65.2(4)
N3 C4 C15 C16 126.0(4)
C5 C4 C15 C16 -112.9(4)
C20 C15 C16 C17 -0.3(6)
C4 C15 C16 C17 177.9(4)
C15 C16 C17 C18 -0.2(6)
C16 C17 C18 O21 -179.9(4)
C16 C17 C18 C19 0.0(6)
O21 C18 C19 C20 -179.4(4)
C17 C18 C19 C20 0.6(6)
C16 C15 C20 C19 0.9(6)
C4 C15 C20 C19 -177.2(3)
C18 C19 C20 C15 -1.1(6)
C17 C18 O21 C22 179.0(4)
C19 C18 O21 C22 -1.0(6)
