#------------------------------------------------------------------------------
#$Date: 2016-02-18 17:37:37 +0200 (Thu, 18 Feb 2016) $
#$Revision: 176729 $
#$URL: svn://www.crystallography.net/cod/cif/1/50/57/1505720.cif $
#------------------------------------------------------------------------------
#
# This file is available in the Crystallography Open Database (COD),
# http://www.crystallography.net/
#
# All data on this site have been placed in the public domain by the
# contributors.
#
data_1505720
loop_
_publ_author_name
'Ren, X. M.'
'Akutagawa, T.'
'Noro, S.'
'Nishihara, S.'
'Nakamura, T.'
'Yoshida, Y.'
'Inoue, K.'
_publ_section_title
;
 Structural and magnetic investigations for the doping effect of
 nonmagnetic impurity on the spin-Peierls-like transition in a
 quasi-one-dimensional magnet: 1-(4'-nitrobenzyl)pyridinium
 bis(maleonitriledithiolato)nickelate.
;
_journal_issue                   15
_journal_name_full               'The journal of physical chemistry. B'
_journal_page_first              7671
_journal_page_last               7677
_journal_paper_doi               10.1021/jp0556106
_journal_volume                  110
_journal_year                    2006
_chemical_formula_sum            'C20 H11 Au0.49 N6 Ni0.51 O2 S4'
_chemical_formula_weight         621.38
_chemical_name_systematic
; 
 ? 
;
_space_group_IT_number           14
_symmetry_cell_setting           monoclinic
_symmetry_space_group_name_Hall  '-P 2ybc'
_symmetry_space_group_name_H-M   'P 1 21/c 1'
_atom_sites_solution_hydrogens   geom
_atom_sites_solution_primary     direct
_atom_sites_solution_secondary   difmap
_audit_creation_method           SHELXL-97
_cell_angle_alpha                90.00
_cell_angle_beta                 102.01(3)
_cell_angle_gamma                90.00
_cell_formula_units_Z            4
_cell_length_a                   12.061(2)
_cell_length_b                   26.487(5)
_cell_length_c                   7.1393(14)
_cell_measurement_temperature    103(2)
_cell_volume                     2230.8(8)
_computing_structure_refinement  'SHELXL-97 (Sheldrick, 1997)'
_computing_structure_solution    'SHELXS-97 (Sheldrick, 1990)'
_diffrn_ambient_temperature      103(2)
_diffrn_measured_fraction_theta_full 0.923
_diffrn_measured_fraction_theta_max 0.923
_diffrn_radiation_monochromator  graphite
_diffrn_radiation_source         'fine-focus sealed tube'
_diffrn_radiation_type           MoK\a
_diffrn_radiation_wavelength     0.71073
_diffrn_reflns_av_R_equivalents  0.0448
_diffrn_reflns_av_sigmaI/netI    0.0421
_diffrn_reflns_limit_h_max       15
_diffrn_reflns_limit_h_min       -15
_diffrn_reflns_limit_k_max       34
_diffrn_reflns_limit_k_min       -34
_diffrn_reflns_limit_l_max       8
_diffrn_reflns_limit_l_min       -9
_diffrn_reflns_number            18942
_diffrn_reflns_theta_full        27.47
_diffrn_reflns_theta_max         27.47
_diffrn_reflns_theta_min         3.02
_exptl_absorpt_coefficient_mu    4.054
_exptl_crystal_density_diffrn    1.850
_exptl_crystal_density_method    'not measured'
_exptl_crystal_F_000             1223
_refine_diff_density_max         2.332
_refine_diff_density_min         -1.936
_refine_diff_density_rms         0.227
_refine_ls_extinction_method     none
_refine_ls_goodness_of_fit_ref   0.944
_refine_ls_hydrogen_treatment    mixed
_refine_ls_matrix_type           full
_refine_ls_number_parameters     299
_refine_ls_number_reflns         4732
_refine_ls_number_restraints     0
_refine_ls_restrained_S_all      0.944
_refine_ls_R_factor_all          0.0674
_refine_ls_R_factor_gt           0.0518
_refine_ls_shift/su_max          0.000
_refine_ls_shift/su_mean         0.000
_refine_ls_structure_factor_coef Fsqd
_refine_ls_weighting_details
'calc w=1/[\s^2^(Fo^2^)+(0.1100P)^2^+32.3563P] where P=(Fo^2^+2Fc^2^)/3'
_refine_ls_weighting_scheme      calc
_refine_ls_wR_factor_gt          0.1495
_refine_ls_wR_factor_ref         0.1880
_reflns_number_gt                3872
_reflns_number_total             4732
_reflns_threshold_expression     >2sigma(I)
_cod_data_source_file            jp0556106si20060207_063811.cif
_cod_data_source_block           x=0.49_at_103K
_cod_depositor_comments
;
The following automatic conversions were performed:

'_symmetry_cell_setting' value 'Monoclinic' changed to 'monoclinic'
according to /home/saulius/struct/CIF-dictionaries/cif_core.dic
dictionary named 'cif_core.dic' version 2.4.1 from 2010-06-29.

Automatic conversion script
Id: cif_fix_values 1715 2011-07-08 13:25:40Z adriana 
;
_cod_original_cell_volume        2230.7(8)
_cod_original_sg_symbol_H-M      P2(1)/c
_cod_database_code               1505720
loop_
_symmetry_equiv_pos_as_xyz
'x, y, z'
'-x, y+1/2, -z+1/2'
'-x, -y, -z'
'x, -y-1/2, z-1/2'
loop_
_atom_site_label
_atom_site_type_symbol
_atom_site_fract_x
_atom_site_fract_y
_atom_site_fract_z
_atom_site_U_iso_or_equiv
_atom_site_adp_type
_atom_site_occupancy
_atom_site_symmetry_multiplicity
_atom_site_calc_flag
_atom_site_refinement_flags
Au1 Au -0.23535(4) 0.226751(15) -0.43543(7) 0.02184(18) Uani 0.485(3) 1 d P
Ni1 Ni -0.23535(4) 0.226751(15) -0.43543(7) 0.02184(18) Uani 0.51 1 d P
S1 S -0.34904(17) 0.16202(8) -0.5332(3) 0.0299(5) Uani 1 1 d .
S2 S -0.08877(19) 0.17690(9) -0.3286(3) 0.0345(5) Uani 1 1 d .
S3 S -0.37871(17) 0.28117(7) -0.5381(3) 0.0256(5) Uani 1 1 d .
S4 S -0.11542(17) 0.29179(7) -0.3507(3) 0.0265(5) Uani 1 1 d .
O1 O 0.1637(6) 0.1642(2) -0.0110(12) 0.052(2) Uani 1 1 d .
O2 O 0.3432(6) 0.1611(2) 0.0831(12) 0.0488(18) Uani 1 1 d .
N1 N -0.3337(7) 0.0252(3) -0.6179(12) 0.0374(18) Uani 1 1 d .
N2 N 0.0073(7) 0.0481(3) -0.3455(12) 0.0400(18) Uani 1 1 d .
N3 N -0.4407(6) 0.4161(2) -0.6220(12) 0.0345(17) Uani 1 1 d .
N4 N -0.0941(6) 0.4295(3) -0.3830(11) 0.0345(17) Uani 1 1 d .
N5 N 0.2758(5) 0.4268(2) -0.1004(9) 0.0205(13) Uani 1 1 d .
N6 N 0.2537(6) 0.1843(3) 0.0382(10) 0.0308(16) Uani 1 1 d .
C1 C -0.3004(7) 0.0632(3) -0.5613(12) 0.0286(17) Uani 1 1 d .
C2 C -0.2545(6) 0.1118(3) -0.4911(12) 0.0279(17) Uani 1 1 d .
C3 C -0.1423(7) 0.1180(3) -0.4020(13) 0.0320(18) Uani 1 1 d .
C4 C -0.0631(7) 0.0778(3) -0.3732(13) 0.0334(19) Uani 1 1 d .
C5 C -0.3820(7) 0.3824(3) -0.5698(12) 0.0284(17) Uani 1 1 d .
C6 C -0.3146(7) 0.3393(3) -0.5073(11) 0.0244(16) Uani 1 1 d .
C7 C -0.1979(7) 0.3439(3) -0.4251(11) 0.0244(15) Uani 1 1 d .
C8 C -0.1424(7) 0.3918(3) -0.4034(12) 0.0275(17) Uani 1 1 d .
C9 C 0.3768(7) 0.4353(3) -0.1477(13) 0.0294(17) Uani 1 1 d .
H9A H 0.4448 0.4245 -0.0648 0.035 Uiso 1 1 calc R
C10 C 0.3811(8) 0.4596(3) -0.3163(13) 0.0321(18) Uani 1 1 d .
H10A H 0.4521 0.4658 -0.3497 0.039 Uiso 1 1 calc R
C11 C 0.2820(9) 0.4749(3) -0.4369(13) 0.038(2) Uani 1 1 d .
H11A H 0.2843 0.4915 -0.5539 0.046 Uiso 1 1 calc R
C12 C 0.1781(8) 0.4656(3) -0.3854(13) 0.0347(19) Uani 1 1 d .
H12A H 0.1090 0.4758 -0.4667 0.042 Uiso 1 1 calc R
C13 C 0.1780(7) 0.4414(3) -0.2141(12) 0.0305(18) Uani 1 1 d .
H13A H 0.1082 0.4351 -0.1764 0.037 Uiso 1 1 calc R
C14 C 0.2730(7) 0.4006(3) 0.0837(11) 0.0257(16) Uani 1 1 d .
H14A H 0.2060 0.4122 0.1316 0.031 Uiso 1 1 calc R
H14B H 0.3415 0.4098 0.1801 0.031 Uiso 1 1 calc R
C15 C 0.2679(6) 0.3439(3) 0.0616(11) 0.0221(15) Uani 1 1 d .
C16 C 0.3669(7) 0.3154(3) 0.1177(12) 0.0280(17) Uani 1 1 d .
H16A H 0.4373 0.3319 0.1629 0.034 Uiso 1 1 calc R
C17 C 0.3627(7) 0.2629(3) 0.1077(13) 0.0289(17) Uani 1 1 d .
H17A H 0.4295 0.2433 0.1449 0.035 Uiso 1 1 calc R
C18 C 0.2591(7) 0.2404(3) 0.0423(11) 0.0252(17) Uani 1 1 d .
C19 C 0.1613(7) 0.2668(3) -0.0159(13) 0.0291(18) Uani 1 1 d .
H19A H 0.0914 0.2498 -0.0608 0.035 Uiso 1 1 calc R
C20 C 0.1662(7) 0.3191(3) -0.0081(13) 0.0287(17) Uani 1 1 d .
H20A H 0.0990 0.3382 -0.0509 0.034 Uiso 1 1 calc R
loop_
_atom_site_aniso_label
_atom_site_aniso_U_11
_atom_site_aniso_U_22
_atom_site_aniso_U_33
_atom_site_aniso_U_23
_atom_site_aniso_U_13
_atom_site_aniso_U_12
Au1 0.0196(3) 0.0184(2) 0.0266(3) 0.00309(15) 0.00270(19) -0.00103(15)
Ni1 0.0196(3) 0.0184(2) 0.0266(3) 0.00309(15) 0.00270(19) -0.00103(15)
S1 0.0198(10) 0.0385(11) 0.0301(11) 0.0056(8) 0.0021(8) 0.0050(8)
S2 0.0271(11) 0.0396(11) 0.0371(12) 0.0007(9) 0.0073(9) -0.0062(8)
S3 0.0249(10) 0.0207(8) 0.0295(11) 0.0019(7) 0.0020(8) -0.0015(7)
S4 0.0224(9) 0.0242(9) 0.0301(10) 0.0044(7) -0.0010(8) -0.0013(7)
O1 0.040(4) 0.028(3) 0.074(5) 0.002(3) -0.022(4) -0.008(3)
O2 0.045(4) 0.026(3) 0.072(5) 0.007(3) 0.006(4) 0.011(3)
N1 0.034(4) 0.033(4) 0.046(5) 0.009(3) 0.008(4) 0.001(3)
N2 0.034(4) 0.039(4) 0.046(5) 0.008(3) 0.003(4) 0.010(3)
N3 0.027(4) 0.020(3) 0.054(5) -0.001(3) 0.003(3) 0.002(3)
N4 0.027(4) 0.026(3) 0.046(5) -0.004(3) -0.005(3) -0.007(3)
N5 0.011(3) 0.023(3) 0.025(3) -0.001(2) -0.005(2) -0.001(2)
N6 0.038(4) 0.022(3) 0.031(4) 0.004(3) 0.002(3) -0.001(3)
C1 0.015(3) 0.037(4) 0.031(4) 0.012(3) -0.001(3) -0.001(3)
C2 0.011(3) 0.049(5) 0.020(4) 0.010(3) -0.005(3) -0.009(3)
C3 0.028(4) 0.036(4) 0.034(5) 0.010(3) 0.012(4) 0.001(3)
C4 0.023(4) 0.043(5) 0.034(5) 0.008(4) 0.005(4) -0.004(3)
C5 0.034(4) 0.024(4) 0.030(4) -0.004(3) 0.014(4) -0.004(3)
C6 0.023(4) 0.021(3) 0.028(4) -0.003(3) 0.005(3) -0.005(3)
C7 0.020(4) 0.028(4) 0.024(4) 0.003(3) 0.002(3) 0.002(3)
C8 0.023(4) 0.031(4) 0.028(4) -0.001(3) 0.005(3) 0.002(3)
C9 0.021(4) 0.022(4) 0.045(5) 0.002(3) 0.007(4) 0.002(3)
C10 0.030(4) 0.027(4) 0.040(5) 0.003(3) 0.008(4) 0.000(3)
C11 0.067(7) 0.020(4) 0.033(5) -0.002(3) 0.024(5) -0.006(4)
C12 0.033(5) 0.024(4) 0.041(5) 0.006(3) -0.004(4) -0.001(3)
C13 0.030(4) 0.022(4) 0.037(5) -0.002(3) 0.002(4) -0.003(3)
C14 0.021(4) 0.025(4) 0.029(4) -0.001(3) 0.002(3) 0.001(3)
C15 0.018(4) 0.024(4) 0.023(4) 0.001(3) 0.001(3) -0.001(3)
C16 0.021(4) 0.026(4) 0.034(4) -0.001(3) -0.001(3) -0.002(3)
C17 0.020(4) 0.028(4) 0.037(5) -0.003(3) 0.003(4) 0.000(3)
C18 0.033(4) 0.017(3) 0.027(4) 0.000(3) 0.008(4) -0.003(3)
C19 0.015(4) 0.032(4) 0.036(5) 0.006(3) -0.004(4) -0.003(3)
C20 0.019(4) 0.026(4) 0.042(5) 0.005(3) 0.008(4) 0.004(3)
loop_
_atom_type_symbol
_atom_type_description
_atom_type_scat_dispersion_real
_atom_type_scat_dispersion_imag
_atom_type_scat_source
C C 0.0033 0.0016 'International Tables Vol C Tables 4.2.6.8 and 6.1.1.4'
H H 0.0000 0.0000 'International Tables Vol C Tables 4.2.6.8 and 6.1.1.4'
N N 0.0061 0.0033 'International Tables Vol C Tables 4.2.6.8 and 6.1.1.4'
O O 0.0106 0.0060 'International Tables Vol C Tables 4.2.6.8 and 6.1.1.4'
S S 0.1246 0.1234 'International Tables Vol C Tables 4.2.6.8 and 6.1.1.4'
Au Au -2.0133 8.8022 'International Tables Vol C Tables 4.2.6.8 and 6.1.1.4'
Ni Ni 0.3393 1.1124 'International Tables Vol C Tables 4.2.6.8 and 6.1.1.4'
loop_
_geom_angle_atom_site_label_1
_geom_angle_atom_site_label_2
_geom_angle_atom_site_label_3
_geom_angle
S2 Au1 S1 92.55(8)
S2 Au1 S4 86.63(8)
S1 Au1 S4 176.74(8)
S2 Au1 S3 176.87(8)
S1 Au1 S3 90.57(7)
S4 Au1 S3 90.26(7)
C2 S1 Au1 101.4(3)
C3 S2 Au1 102.3(3)
C6 S3 Au1 103.7(3)
C7 S4 Au1 103.5(3)
C13 N5 C9 121.8(7)
C13 N5 C14 119.2(6)
C9 N5 C14 119.0(6)
O1 N6 O2 123.4(8)
O1 N6 C18 119.0(7)
O2 N6 C18 117.5(7)
N1 C1 C2 178.2(9)
C3 C2 C1 122.1(8)
C3 C2 S1 122.3(7)
C1 C2 S1 115.5(6)
C2 C3 C4 123.1(9)
C2 C3 S2 121.0(7)
C4 C3 S2 115.9(7)
N2 C4 C3 174.7(10)
N3 C5 C6 177.2(9)
C7 C6 C5 121.2(7)
C7 C6 S3 120.9(6)
C5 C6 S3 117.9(6)
C6 C7 C8 121.7(7)
C6 C7 S4 121.4(6)
C8 C7 S4 116.9(6)
N4 C8 C7 177.5(9)
N5 C9 C10 119.8(8)
C9 C10 C11 119.9(8)
C10 C11 C12 119.4(8)
C13 C12 C11 118.7(8)
N5 C13 C12 120.4(8)
N5 C14 C15 112.2(6)
C20 C15 C16 119.0(7)
C20 C15 C14 121.4(7)
C16 C15 C14 119.6(7)
C17 C16 C15 120.3(7)
C18 C17 C16 118.2(8)
C19 C18 C17 123.3(8)
C19 C18 N6 118.4(7)
C17 C18 N6 118.3(7)
C18 C19 C20 118.3(8)
C19 C20 C15 120.9(7)
loop_
_geom_bond_atom_site_label_1
_geom_bond_atom_site_label_2
_geom_bond_distance
Au1 S2 2.211(2)
Au1 S1 2.216(2)
Au1 S4 2.250(2)
Au1 S3 2.253(2)
S1 C2 1.736(9)
S2 C3 1.728(9)
S3 C6 1.717(7)
S4 C7 1.720(8)
O1 N6 1.195(10)
O2 N6 1.225(10)
N1 C1 1.127(11)
N2 C4 1.145(11)
N3 C5 1.152(11)
N4 C8 1.150(11)
N5 C13 1.342(10)
N5 C9 1.349(10)
N5 C14 1.494(10)
N6 C18 1.486(9)
C1 C2 1.449(12)
C2 C3 1.380(11)
C3 C4 1.416(12)
C5 C6 1.418(11)
C6 C7 1.413(11)
C7 C8 1.426(11)
C9 C10 1.375(12)
C10 C11 1.380(13)
C11 C12 1.399(13)
C12 C13 1.382(12)
C14 C15 1.510(10)
C15 C20 1.390(11)
C15 C16 1.399(11)
C16 C17 1.391(11)
C17 C18 1.376(11)
C18 C19 1.360(11)
C19 C20 1.388(11)
