#------------------------------------------------------------------------------
#$Date: 2016-02-14 16:26:36 +0200 (Sun, 14 Feb 2016) $
#$Revision: 176435 $
#$URL: svn://www.crystallography.net/cod/cif/1/50/73/1507301.cif $
#------------------------------------------------------------------------------
#
# This file is available in the Crystallography Open Database (COD),
# http://www.crystallography.net/
#
# All data on this site have been placed in the public domain by the
# contributors.
#
data_1507301
loop_
_publ_author_name
'Sun, Pei-Pei'
'Chang, Meng-Yang'
'Chiang, Michael Y.'
'Chang, Nein-Chen'
_publ_section_title
;
 A facile route to polysubstitutedN-benzyl pyroglutamates.
;
_journal_issue                   10
_journal_name_full               'Organic letters'
_journal_page_first              1761
_journal_page_last               1763
_journal_paper_doi               10.1021/ol0344164
_journal_volume                  5
_journal_year                    2003
_chemical_formula_moiety         'C27 H27 N O5 S '
_chemical_formula_sum            'C27 H27 N O5 S'
_chemical_formula_weight         477.57
_chemical_melting_point          408
_chemical_name_systematic
; 
ethyl 1-benzyl-4-[(4-methylphenyl)sulfonyl]-5-oxo-3-phenyl -2-pyrrolidinecarboxylate 
;
_space_group_IT_number           2
_symmetry_cell_setting           triclinic
_symmetry_Int_Tables_number      2
_symmetry_space_group_name_Hall  '-P 1'
_symmetry_space_group_name_H-M   'P -1'
_audit_creation_date             2003-01-22
_audit_creation_method           'by teXsan v1.8'
_audit_update_record
;
?
;
_cell_angle_alpha                106.97(1)
_cell_angle_beta                 98.70(2)
_cell_angle_gamma                94.06(1)
_cell_formula_units_Z            2
_cell_length_a                   9.756(1)
_cell_length_b                   11.070(1)
_cell_length_c                   12.207(2)
_cell_measurement_reflns_used    25
_cell_measurement_temperature    298.2
_cell_measurement_theta_max      12.5
_cell_measurement_theta_min      11.2
_cell_volume                     1237.2(3)
_computing_cell_refinement       'MSC/AFC Diffractometer Control'
_computing_data_collection       'MSC/AFC Diffractometer Control'
_computing_data_reduction        'teXsan (MSC, 1992-1997)'
_computing_publication_material  'teXsan (MSC, 1992-1997)'
_computing_structure_refinement  'teXsan (MSC, 1992-1997)'
_diffrn_ambient_temperature      298.2
_diffrn_measurement_device_type  'Rigaku AFC7S'
_diffrn_measurement_method       \w-2\q
_diffrn_orient_matrix_UB_11      0.06898
_diffrn_orient_matrix_UB_12      0.07110
_diffrn_orient_matrix_UB_13      0.05466
_diffrn_orient_matrix_UB_21      -0.06362
_diffrn_orient_matrix_UB_22      0.06289
_diffrn_orient_matrix_UB_23      -0.01435
_diffrn_orient_matrix_UB_31      -0.04593
_diffrn_orient_matrix_UB_32      -0.00665
_diffrn_orient_matrix_UB_33      0.06625
_diffrn_radiation_detector       'scintillation counter'
_diffrn_radiation_monochromator  graphite
_diffrn_radiation_source         'X-ray tube'
_diffrn_radiation_type           'Mo K\a'
_diffrn_radiation_wavelength     0.7107
_diffrn_reflns_av_R_equivalents  0.01864
_diffrn_reflns_av_sigmaI/netI    0.020
_diffrn_reflns_limit_h_max       11
_diffrn_reflns_limit_h_min       -11
_diffrn_reflns_limit_k_max       13
_diffrn_reflns_limit_k_min       0
_diffrn_reflns_limit_l_max       13
_diffrn_reflns_limit_l_min       -14
_diffrn_reflns_number            4593
_diffrn_reflns_reduction_process 'Lp corrections applied'
_diffrn_reflns_theta_max         24.99
_diffrn_reflns_theta_min         2.13
_diffrn_standards_decay_%        0.41
_diffrn_standards_interval_count 150
_diffrn_standards_number         3
_exptl_absorpt_coefficient_mu    0.168
_exptl_absorpt_correction_T_max  1.000
_exptl_absorpt_correction_T_min  0.986
_exptl_absorpt_correction_type
;
\y scans (North,Phillips & Matthews, 1968)
;
_exptl_crystal_colour            colorless
_exptl_crystal_density_diffrn    1.282
_exptl_crystal_density_meas      ?
_exptl_crystal_description       prism
_exptl_crystal_F_000             504.00
_exptl_crystal_size_max          0.74
_exptl_crystal_size_mid          0.70
_exptl_crystal_size_min          0.60
_refine_diff_density_max         0.20
_refine_diff_density_min         -0.28
_refine_ls_extinction_method     none
_refine_ls_goodness_of_fit_all   3.695
_refine_ls_goodness_of_fit_ref   4.024
_refine_ls_hydrogen_treatment    noref
_refine_ls_matrix_type           full
_refine_ls_number_constraints    0
_refine_ls_number_parameters     307
_refine_ls_number_reflns         3636
_refine_ls_number_restraints     0
_refine_ls_R_factor_all          0.0506
_refine_ls_R_factor_gt           0.0408
_refine_ls_shift/su_max          0.0040
_refine_ls_shift/su_mean         0.0030
_refine_ls_structure_factor_coef F
_refine_ls_weighting_details     'w = 1/[\s^2^(Fo) + 0.00002|Fo|^2^]'
_refine_ls_weighting_scheme      sigma
_refine_ls_wR_factor_all         0.0484
_refine_ls_wR_factor_ref         0.0479
_reflns_number_gt                3636
_reflns_number_total             4347
_reflns_threshold_expression     I>3.00\s(I)
_cod_data_source_file            ol0344164si20030402_022326.cif
_cod_data_source_block           organo11(s271-1)_2/5/2001
_cod_depositor_comments
;
The following automatic conversions were performed:

'_exptl_crystal_density_meas' value 'not measured' was changed to '?'
- the value is perceived as not measured.

Automatic conversion script
Id: cif_fix_values 3008 2015-01-20 13:52:24Z robertas 
;
_cod_original_cell_volume        1237.1(4)
_cod_original_sg_symbol_H-M      'P -1       '
_cod_original_formula_sum        'C27 H27 N O5 S '
_cod_database_code               1507301
loop_
_symmetry_equiv_pos_as_xyz
'   +x,   +y,   +z'
'   -x,   -y,   -z'
loop_
_atom_site_label
_atom_site_fract_x
_atom_site_fract_y
_atom_site_fract_z
_atom_site_U_iso_or_equiv
_atom_site_occupancy
_atom_site_adp_type
_atom_site_calc_flag
S(1) 0.23129(5) -0.07249(5) -0.07934(4) 0.0413(2) 1.000 Uani d
O(1) 0.1471(2) 0.1949(2) 0.0311(1) 0.0598(5) 1.000 Uani d
O(2) 0.3603(2) -0.0104(1) -0.0906(1) 0.0534(5) 1.000 Uani d
O(3) 0.1052(2) -0.0707(1) -0.1565(1) 0.0544(5) 1.000 Uani d
O(4) 0.5285(2) 0.0503(2) 0.3629(2) 0.0850(7) 1.000 Uani d
O(5) 0.5575(2) 0.2355(2) 0.3289(2) 0.0820(7) 1.000 Uani d
N(1) 0.2867(2) 0.1945(2) 0.2001(2) 0.0445(5) 1.000 Uani d
C(1) 0.2074(2) 0.1394(2) 0.0936(2) 0.0433(6) 1.000 Uani d
C(2) 0.2021(2) -0.0038(2) 0.0663(2) 0.0365(6) 1.000 Uani d
C(3) 0.3112(2) -0.0258(2) 0.1612(2) 0.0348(5) 1.000 Uani d
C(4) 0.3356(2) 0.1045(2) 0.2589(2) 0.0406(6) 1.000 Uani d
C(5) 0.2913(3) 0.3311(2) 0.2600(2) 0.0562(7) 1.000 Uani d
C(6) 0.2313(2) 0.3587(2) 0.3700(2) 0.0422(6) 1.000 Uani d
C(7) 0.1080(2) 0.2932(2) 0.3753(2) 0.0554(7) 1.000 Uani d
C(8) 0.0537(3) 0.3222(3) 0.4764(2) 0.0681(9) 1.000 Uani d
C(9) 0.1212(3) 0.4176(3) 0.5728(2) 0.0715(9) 1.000 Uani d
C(10) 0.2410(3) 0.4845(3) 0.5683(2) 0.0697(9) 1.000 Uani d
C(11) 0.2966(2) 0.4552(2) 0.4680(2) 0.0541(7) 1.000 Uani d
C(12) 0.2520(2) -0.2315(2) -0.0876(2) 0.0415(6) 1.000 Uani d
C(13) 0.3815(2) -0.2740(2) -0.0913(2) 0.0503(7) 1.000 Uani d
C(14) 0.3928(2) -0.4001(3) -0.1020(2) 0.0575(8) 1.000 Uani d
C(15) 0.2791(3) -0.4850(2) -0.1065(2) 0.0556(7) 1.000 Uani d
C(16) 0.1519(3) -0.4387(2) -0.0985(2) 0.0574(7) 1.000 Uani d
C(17) 0.1365(2) -0.3131(2) -0.0897(2) 0.0515(7) 1.000 Uani d
C(18) 0.2912(3) -0.6235(3) -0.1225(3) 0.085(1) 1.000 Uani d
C(19) 0.2681(2) -0.1357(2) 0.2036(2) 0.0357(5) 1.000 Uani d
C(20) 0.1395(2) -0.1482(2) 0.2361(2) 0.0464(7) 1.000 Uani d
C(21) 0.1023(3) -0.2475(2) 0.2773(2) 0.0595(8) 1.000 Uani d
C(22) 0.1930(3) -0.3346(2) 0.2863(2) 0.0684(9) 1.000 Uani d
C(23) 0.3197(3) -0.3235(2) 0.2544(2) 0.0678(9) 1.000 Uani d
C(24) 0.3587(2) -0.2239(2) 0.2126(2) 0.0504(7) 1.000 Uani d
C(25) 0.4863(3) 0.1406(2) 0.3204(2) 0.0515(7) 1.000 Uani d
C(26) 0.6724(4) 0.0689(4) 0.4255(4) 0.120(1) 1.000 Uani d
C(27) 0.7259(4) -0.0480(5) 0.4074(4) 0.149(2) 1.000 Uani d
H(1) 0.1122 -0.0375 0.0723 0.044 1.000 Uiso c
H(2) 0.3954 -0.0403 0.1318 0.042 1.000 Uiso c
H(3) 0.2784 0.1005 0.3145 0.049 1.000 Uiso c
H(4) 0.3859 0.3685 0.2791 0.067 1.000 Uiso c
H(5) 0.2396 0.3682 0.2085 0.067 1.000 Uiso c
H(6) 0.0601 0.2274 0.3085 0.066 1.000 Uiso c
H(7) -0.0309 0.2759 0.4793 0.082 1.000 Uiso c
H(8) 0.0841 0.4368 0.6427 0.086 1.000 Uiso c
H(9) 0.2868 0.5518 0.6347 0.084 1.000 Uiso c
H(10) 0.3812 0.5021 0.4661 0.065 1.000 Uiso c
H(11) 0.4615 -0.2172 -0.0864 0.060 1.000 Uiso c
H(12) 0.4814 -0.4299 -0.1065 0.069 1.000 Uiso c
H(13) 0.0730 -0.4945 -0.0990 0.069 1.000 Uiso c
H(14) 0.0480 -0.2833 -0.0851 0.062 1.000 Uiso c
H(15) 0.2639 -0.6455 -0.0586 0.102 1.000 Uiso c
H(16) 0.2322 -0.6737 -0.1927 0.102 1.000 Uiso c
H(17) 0.3853 -0.6389 -0.1261 0.102 1.000 Uiso c
H(18) 0.0762 -0.0881 0.2302 0.056 1.000 Uiso c
H(19) 0.0137 -0.2553 0.2995 0.071 1.000 Uiso c
H(20) 0.1674 -0.4027 0.3147 0.082 1.000 Uiso c
H(21) 0.3824 -0.3841 0.2606 0.081 1.000 Uiso c
H(22) 0.4474 -0.2169 0.1904 0.060 1.000 Uiso c
H(23) 0.7283 0.1235 0.3981 0.144 1.000 Uiso c
H(24) 0.6742 0.1064 0.5064 0.144 1.000 Uiso c
H(25) 0.6701 -0.1029 0.4346 0.179 1.000 Uiso c
H(26) 0.7248 -0.0855 0.3266 0.179 1.000 Uiso c
H(27) 0.8192 -0.0348 0.4487 0.179 1.000 Uiso c
loop_
_atom_site_aniso_label
_atom_site_aniso_U_11
_atom_site_aniso_U_22
_atom_site_aniso_U_33
_atom_site_aniso_U_12
_atom_site_aniso_U_13
_atom_site_aniso_U_23
S(1) 0.0373(3) 0.0488(3) 0.0370(3) -0.0001(2) 0.0047(2) 0.0142(2)
O(1) 0.069(1) 0.061(1) 0.066(1) 0.0250(9) 0.0176(9) 0.0374(9)
O(2) 0.0457(9) 0.064(1) 0.0524(9) -0.0056(8) 0.0161(7) 0.0207(8)
O(3) 0.0503(9) 0.062(1) 0.0470(9) 0.0006(8) -0.0080(7) 0.0200(8)
O(4) 0.073(1) 0.066(1) 0.103(2) -0.018(1) -0.038(1) 0.040(1)
O(5) 0.075(1) 0.061(1) 0.100(2) -0.026(1) -0.005(1) 0.028(1)
N(1) 0.060(1) 0.0316(9) 0.046(1) 0.0070(8) 0.0169(9) 0.0156(8)
C(1) 0.044(1) 0.046(1) 0.050(1) 0.012(1) 0.021(1) 0.023(1)
C(2) 0.034(1) 0.041(1) 0.039(1) 0.0037(9) 0.0090(9) 0.0170(9)
C(3) 0.033(1) 0.035(1) 0.037(1) 0.0023(8) 0.0075(9) 0.0113(9)
C(4) 0.051(1) 0.033(1) 0.040(1) 0.0003(9) 0.011(1) 0.0131(9)
C(5) 0.080(2) 0.031(1) 0.064(2) 0.007(1) 0.026(1) 0.017(1)
C(6) 0.048(1) 0.031(1) 0.049(1) 0.0058(9) 0.008(1) 0.014(1)
C(7) 0.057(1) 0.047(1) 0.050(1) -0.010(1) 0.006(1) 0.002(1)
C(8) 0.063(2) 0.065(2) 0.069(2) -0.014(1) 0.024(1) 0.010(1)
C(9) 0.095(2) 0.063(2) 0.051(2) -0.010(2) 0.026(1) 0.007(1)
C(10) 0.088(2) 0.060(2) 0.045(1) -0.018(1) 0.000(1) 0.004(1)
C(11) 0.051(1) 0.048(1) 0.058(1) -0.010(1) 0.000(1) 0.016(1)
C(12) 0.039(1) 0.046(1) 0.034(1) 0.004(1) 0.0050(9) 0.0071(9)
C(13) 0.043(1) 0.061(2) 0.046(1) 0.005(1) 0.012(1) 0.014(1)
C(14) 0.050(1) 0.071(2) 0.053(1) 0.022(1) 0.013(1) 0.015(1)
C(15) 0.062(2) 0.054(1) 0.046(1) 0.014(1) 0.004(1) 0.010(1)
C(16) 0.052(1) 0.049(1) 0.064(2) -0.002(1) 0.006(1) 0.011(1)
C(17) 0.039(1) 0.050(1) 0.059(1) 0.004(1) 0.006(1) 0.008(1)
C(18) 0.092(2) 0.063(2) 0.094(2) 0.023(2) 0.004(2) 0.018(2)
C(19) 0.041(1) 0.030(1) 0.034(1) 0.0006(9) 0.0018(9) 0.0086(8)
C(20) 0.043(1) 0.045(1) 0.057(1) 0.003(1) 0.009(1) 0.026(1)
C(21) 0.058(2) 0.056(2) 0.071(2) -0.006(1) 0.012(1) 0.033(1)
C(22) 0.088(2) 0.045(1) 0.080(2) -0.004(1) 0.012(2) 0.035(1)
C(23) 0.083(2) 0.044(1) 0.085(2) 0.021(1) 0.012(2) 0.032(1)
C(24) 0.055(1) 0.042(1) 0.058(1) 0.012(1) 0.010(1) 0.018(1)
C(25) 0.060(2) 0.042(1) 0.044(1) -0.006(1) 0.003(1) 0.007(1)
C(26) 0.083(2) 0.101(3) 0.144(3) -0.015(2) -0.065(2) 0.040(3)
C(27) 0.100(3) 0.167(5) 0.153(4) 0.041(3) -0.031(3) 0.031(3)
loop_
_atom_type_symbol
_atom_type_oxidation_number
_atom_type_number_in_cell
_atom_type_scat_dispersion_real
_atom_type_scat_dispersion_imag
_atom_type_scat_source
C 0 54 0.002 0.002
;International Tables for Crystallography
(1992, Vol. C, Tables 4.2.6.8 and 6.1.1.1)
;
H 0 54 0.000 0.000
;International Tables for Crystallography
(1992, Vol. C, Table 6.1.1.2)
;
N 0 2 0.004 0.003
;International Tables for Crystallography
(1992, Vol. C, Tables 4.2.6.8 and 6.1.1.1)
;
O 0 10 0.008 0.006
;International Tables for Crystallography
(1992, Vol. C, Tables 4.2.6.8 and 6.1.1.1)
;
S 0 2 0.110 0.124
;International Tables for Crystallography
(1992, Vol. C, Tables 4.2.6.8 and 6.1.1.1)
;
loop_
_diffrn_standard_refln_index_h
_diffrn_standard_refln_index_k
_diffrn_standard_refln_index_l
0 -1 3
1 0 2
1 1 2
loop_
_geom_angle_atom_site_label_1
_geom_angle_atom_site_label_2
_geom_angle_atom_site_label_3
_geom_angle
_geom_angle_publ_flag
O(2) S(1) O(3) 119.11(9) yes
O(2) S(1) C(2) 108.20(9) yes
O(2) S(1) C(12) 109.0(1) yes
O(3) S(1) C(2) 107.02(9) yes
O(3) S(1) C(12) 108.80(9) yes
C(2) S(1) C(12) 103.63(9) yes
C(25) O(4) C(26) 117.7(2) yes
C(1) N(1) C(4) 114.0(2) yes
C(1) N(1) C(5) 121.0(2) yes
C(4) N(1) C(5) 123.2(2) yes
O(1) C(1) N(1) 126.1(2) yes
O(1) C(1) C(2) 125.6(2) yes
N(1) C(1) C(2) 108.2(2) yes
S(1) C(2) C(1) 109.7(1) yes
S(1) C(2) C(3) 114.5(1) yes
S(1) C(2) H(1) 108.9 no
C(1) C(2) C(3) 105.9(2) yes
C(1) C(2) H(1) 108.9 no
C(3) C(2) H(1) 108.9 no
C(2) C(3) C(4) 103.1(2) yes
C(2) C(3) C(19) 114.7(2) yes
C(2) C(3) H(2) 108.7 no
C(4) C(3) C(19) 112.8(2) yes
C(4) C(3) H(2) 108.7 no
C(19) C(3) H(2) 108.7 no
N(1) C(4) C(3) 104.5(2) yes
N(1) C(4) C(25) 112.8(2) yes
N(1) C(4) H(3) 108.8 no
C(3) C(4) C(25) 112.9(2) yes
C(3) C(4) H(3) 108.8 no
C(25) C(4) H(3) 108.8 no
N(1) C(5) C(6) 113.4(2) yes
N(1) C(5) H(4) 108.5 no
N(1) C(5) H(5) 108.5 no
C(6) C(5) H(4) 108.5 no
C(6) C(5) H(5) 108.5 no
H(4) C(5) H(5) 109.5 no
C(5) C(6) C(7) 121.8(2) yes
C(5) C(6) C(11) 120.1(2) yes
C(7) C(6) C(11) 118.0(2) yes
C(6) C(7) C(8) 120.7(2) yes
C(6) C(7) H(6) 119.7 no
C(8) C(7) H(6) 119.7 no
C(7) C(8) C(9) 120.2(2) yes
C(7) C(8) H(7) 119.9 no
C(9) C(8) H(7) 119.9 no
C(8) C(9) C(10) 119.9(2) yes
C(8) C(9) H(8) 120.1 no
C(10) C(9) H(8) 120.1 no
C(9) C(10) C(11) 120.3(2) yes
C(9) C(10) H(9) 119.9 no
C(11) C(10) H(9) 119.9 no
C(6) C(11) C(10) 121.0(2) yes
C(6) C(11) H(10) 119.5 no
C(10) C(11) H(10) 119.5 no
S(1) C(12) C(13) 120.6(2) yes
S(1) C(12) C(17) 119.0(2) yes
C(13) C(12) C(17) 120.5(2) yes
C(12) C(13) C(14) 118.9(2) yes
C(12) C(13) H(11) 120.5 no
C(14) C(13) H(11) 120.5 no
C(13) C(14) C(15) 122.1(2) yes
C(13) C(14) H(12) 118.9 no
C(15) C(14) H(12) 118.9 no
C(14) C(15) C(16) 117.7(2) yes
C(14) C(15) C(18) 121.8(2) yes
C(16) C(15) C(18) 120.5(2) yes
C(15) C(16) C(17) 121.6(2) yes
C(15) C(16) H(13) 119.2 no
C(17) C(16) H(13) 119.2 no
C(12) C(17) C(16) 119.1(2) yes
C(12) C(17) H(14) 120.4 no
C(16) C(17) H(14) 120.4 no
C(15) C(18) H(15) 109.5 no
C(15) C(18) H(16) 109.5 no
C(15) C(18) H(17) 109.5 no
H(15) C(18) H(16) 109.5 no
H(15) C(18) H(17) 109.5 no
H(16) C(18) H(17) 109.5 no
C(3) C(19) C(20) 120.9(2) yes
C(3) C(19) C(24) 120.1(2) yes
C(20) C(19) C(24) 119.0(2) yes
C(19) C(20) C(21) 120.5(2) yes
C(19) C(20) H(18) 119.8 no
C(21) C(20) H(18) 119.7 no
C(20) C(21) C(22) 120.2(2) yes
C(20) C(21) H(19) 119.9 no
C(22) C(21) H(19) 119.9 no
C(21) C(22) C(23) 119.9(2) yes
C(21) C(22) H(20) 120.1 no
C(23) C(22) H(20) 120.1 no
C(22) C(23) C(24) 120.6(2) yes
C(22) C(23) H(21) 119.7 no
C(24) C(23) H(21) 119.7 no
C(19) C(24) C(23) 119.9(2) yes
C(19) C(24) H(22) 120.1 no
C(23) C(24) H(22) 120.1 no
O(4) C(25) O(5) 124.4(2) yes
O(4) C(25) C(4) 110.1(2) yes
O(5) C(25) C(4) 125.5(2) yes
O(4) C(26) C(27) 110.2(3) yes
O(4) C(26) H(23) 109.3 no
O(4) C(26) H(24) 109.3 no
C(27) C(26) H(23) 109.3 no
C(27) C(26) H(24) 109.3 no
H(23) C(26) H(24) 109.5 no
C(26) C(27) H(25) 109.5 no
C(26) C(27) H(26) 109.5 no
C(26) C(27) H(27) 109.5 no
H(25) C(27) H(26) 109.5 no
H(25) C(27) H(27) 109.5 no
H(26) C(27) H(27) 109.5 no
loop_
_geom_bond_atom_site_label_1
_geom_bond_atom_site_label_2
_geom_bond_distance
_geom_bond_publ_flag
S(1) O(2) 1.436(1) yes
S(1) O(3) 1.437(2) yes
S(1) C(2) 1.793(2) yes
S(1) C(12) 1.761(2) yes
O(1) C(1) 1.222(2) yes
O(4) C(25) 1.316(3) yes
O(4) C(26) 1.463(3) yes
O(5) C(25) 1.186(2) yes
N(1) C(1) 1.351(3) yes
N(1) C(4) 1.454(2) yes
N(1) C(5) 1.469(3) yes
C(1) C(2) 1.518(3) yes
C(2) C(3) 1.537(3) yes
C(2) H(1) 0.95 no
C(3) C(4) 1.556(3) yes
C(3) C(19) 1.512(3) yes
C(3) H(2) 0.95 no
C(4) C(25) 1.515(3) yes
C(4) H(3) 0.95 no
C(5) C(6) 1.505(3) yes
C(5) H(4) 0.95 no
C(5) H(5) 0.95 no
C(6) C(7) 1.380(3) yes
C(6) C(11) 1.380(3) yes
C(7) C(8) 1.378(3) yes
C(7) H(6) 0.95 no
C(8) C(9) 1.369(3) yes
C(8) H(7) 0.95 no
C(9) C(10) 1.357(4) yes
C(9) H(8) 0.95 no
C(10) C(11) 1.376(3) yes
C(10) H(9) 0.95 no
C(11) H(10) 0.95 no
C(12) C(13) 1.382(3) yes
C(12) C(17) 1.386(3) yes
C(13) C(14) 1.377(3) yes
C(13) H(11) 0.95 no
C(14) C(15) 1.385(3) yes
C(14) H(12) 0.95 no
C(15) C(16) 1.382(3) yes
C(15) C(18) 1.504(4) yes
C(16) C(17) 1.383(3) yes
C(16) H(13) 0.95 no
C(17) H(14) 0.95 no
C(18) H(15) 0.95 no
C(18) H(16) 0.95 no
C(18) H(17) 0.95 no
C(19) C(20) 1.382(3) yes
C(19) C(24) 1.379(3) yes
C(20) C(21) 1.384(3) yes
C(20) H(18) 0.95 no
C(21) C(22) 1.370(4) yes
C(21) H(19) 0.95 no
C(22) C(23) 1.359(4) yes
C(22) H(20) 0.95 no
C(23) C(24) 1.395(3) yes
C(23) H(21) 0.95 no
C(24) H(22) 0.95 no
C(26) C(27) 1.399(5) yes
C(26) H(23) 0.95 no
C(26) H(24) 0.95 no
C(27) H(25) 0.95 no
C(27) H(26) 0.95 no
C(27) H(27) 0.95 no
loop_
_geom_contact_atom_site_label_1
_geom_contact_atom_site_label_2
_geom_contact_distance
_geom_contact_site_symmetry_2
_geom_contact_publ_flag
O(1) C(17) 3.232(3) 2 no
O(1) C(18) 3.482(4) 1_565 no
O(1) O(3) 3.491(2) 2 no
O(2) O(2) 3.187(3) 2_655 no
O(2) C(25) 3.377(3) 2_655 no
O(2) C(3) 3.468(2) 2_655 no
O(2) O(5) 3.475(3) 2_655 no
O(2) O(4) 3.567(3) 2_655 no
O(3) C(1) 3.346(3) 2 no
O(3) C(7) 3.358(3) 2 no
O(3) C(2) 3.421(2) 2 no
O(5) C(13) 3.188(3) 2_655 no
O(5) C(10) 3.342(3) 2_666 no
