#------------------------------------------------------------------------------
#$Date: 2016-02-18 17:37:37 +0200 (Thu, 18 Feb 2016) $
#$Revision: 176729 $
#$URL: svn://www.crystallography.net/cod/cif/1/50/75/1507579.cif $
#------------------------------------------------------------------------------
#
# This file is available in the Crystallography Open Database (COD),
# http://www.crystallography.net/
#
# All data on this site have been placed in the public domain by the
# contributors.
#
data_1507579
loop_
_publ_author_name
'Yeh, Ming-Chang P'
'Fang, Cheng-Wei'
'Lin, Hsin-Hui'
_publ_section_title
;
 Facile Synthesis of Azaspirocycles via Iron Trichloride-Promoted
 Cyclization/Chlorination of Cyclic 8-Aryl-5-aza-5-tosyl-2-en-7-yn-1-ols.
;
_journal_issue                   7
_journal_name_full               'Organic letters'
_journal_page_first              1830
_journal_page_last               1833
_journal_paper_doi               10.1021/ol300434m
_journal_volume                  14
_journal_year                    2012
_chemical_formula_moiety         'C23 H24 Cl N O2 S'
_chemical_formula_sum            'C23 H24 Cl N O2 S'
_chemical_formula_weight         413.94
_chemical_name_systematic
;
 ?
;
_space_group_IT_number           14
_symmetry_cell_setting           monoclinic
_symmetry_space_group_name_Hall  '-P 2yn'
_symmetry_space_group_name_H-M   'P 1 21/n 1'
_atom_sites_solution_hydrogens   geom
_atom_sites_solution_primary     direct
_atom_sites_solution_secondary   difmap
_audit_creation_method           SHELXL-97
_cell_angle_alpha                90.00
_cell_angle_beta                 108.705(2)
_cell_angle_gamma                90.00
_cell_formula_units_Z            4
_cell_length_a                   6.5931(2)
_cell_length_b                   38.1706(13)
_cell_length_c                   8.8048(3)
_cell_measurement_reflns_used    0
_cell_measurement_temperature    200(2)
_cell_measurement_theta_max      0
_cell_measurement_theta_min      0
_cell_volume                     2098.80(12)
_computing_molecular_graphics    'Ortep-3 for Windows (Farrugia, 1997)'
_computing_publication_material  'WinGX publication routines (Farrugia, 1999)'
_computing_structure_refinement  'SHELXL-97 (Sheldrick, 1997)'
_computing_structure_solution    'SHELXS-86 (Sheldrick, 1986)'
_diffrn_ambient_temperature      200(2)
_diffrn_measured_fraction_theta_full 0.989
_diffrn_measured_fraction_theta_max 0.989
_diffrn_radiation_monochromator  graphite
_diffrn_radiation_source         'fine-focus sealed tube'
_diffrn_radiation_type           MoK\a
_diffrn_radiation_wavelength     0.71073
_diffrn_reflns_av_R_equivalents  0.0252
_diffrn_reflns_av_sigmaI/netI    0.0265
_diffrn_reflns_limit_h_max       6
_diffrn_reflns_limit_h_min       -7
_diffrn_reflns_limit_k_max       45
_diffrn_reflns_limit_k_min       -45
_diffrn_reflns_limit_l_max       9
_diffrn_reflns_limit_l_min       -10
_diffrn_reflns_number            13847
_diffrn_reflns_theta_full        25.02
_diffrn_reflns_theta_max         25.02
_diffrn_reflns_theta_min         1.07
_exptl_absorpt_coefficient_mu    0.300
_exptl_absorpt_correction_T_max  0.9315
_exptl_absorpt_correction_T_min  0.8197
_exptl_absorpt_correction_type   multi-scan
_exptl_crystal_colour            colorless
_exptl_crystal_density_diffrn    1.310
_exptl_crystal_density_method    'not measured'
_exptl_crystal_description       prism
_exptl_crystal_F_000             872
_exptl_crystal_size_max          0.69
_exptl_crystal_size_mid          0.42
_exptl_crystal_size_min          0.24
_refine_diff_density_max         0.282
_refine_diff_density_min         -0.368
_refine_diff_density_rms         0.086
_refine_ls_extinction_method     none
_refine_ls_goodness_of_fit_ref   1.143
_refine_ls_hydrogen_treatment    fixed
_refine_ls_matrix_type           full
_refine_ls_number_parameters     253
_refine_ls_number_reflns         3664
_refine_ls_number_restraints     0
_refine_ls_restrained_S_all      1.143
_refine_ls_R_factor_all          0.0456
_refine_ls_R_factor_gt           0.0375
_refine_ls_shift/su_max          0.000
_refine_ls_shift/su_mean         0.000
_refine_ls_structure_factor_coef Fsqd
_refine_ls_weighting_details
'calc w=1/[\s^2^(Fo^2^)+(0.0684P)^2^+0.7351P] where P=(Fo^2^+2Fc^2^)/3'
_refine_ls_weighting_scheme      calc
_refine_ls_wR_factor_gt          0.1084
_refine_ls_wR_factor_ref         0.1256
_reflns_number_gt                3280
_reflns_number_total             3664
_reflns_threshold_expression     >2sigma(I)
_cod_data_source_file            ol300434m_si_002.cif
_cod_data_source_block           a10653
_cod_original_sg_symbol_H-M      'P 21/n'
_cod_database_code               1507579
loop_
_symmetry_equiv_pos_as_xyz
'x, y, z'
'-x+1/2, y+1/2, -z+1/2'
'-x, -y, -z'
'x-1/2, -y-1/2, z-1/2'
loop_
_atom_site_label
_atom_site_type_symbol
_atom_site_fract_x
_atom_site_fract_y
_atom_site_fract_z
_atom_site_U_iso_or_equiv
_atom_site_adp_type
_atom_site_occupancy
_atom_site_symmetry_multiplicity
_atom_site_calc_flag
_atom_site_refinement_flags
C1 C 0.4454(3) 0.03602(5) 0.8278(2) 0.0279(5) Uani 1 1 d .
C2 C 0.4933(4) 0.01262(6) 0.7229(3) 0.0364(5) Uani 1 1 d .
H2 H 0.6155 0.0160 0.6917 0.044 Uiso 1 1 calc R
C3 C 0.3591(4) -0.01557(6) 0.6652(3) 0.0460(6) Uani 1 1 d .
H3 H 0.3920 -0.0316 0.5953 0.055 Uiso 1 1 calc R
C4 C 0.1761(4) -0.02074(6) 0.7086(3) 0.0445(6) Uani 1 1 d .
C5 C 0.0278(5) -0.05124(7) 0.6408(4) 0.0709(10) Uani 1 1 d .
H5A H 0.0830 -0.0647 0.5690 0.106 Uiso 1 1 calc R
H5B H -0.1137 -0.0424 0.5821 0.106 Uiso 1 1 calc R
H5C H 0.0192 -0.0661 0.7277 0.106 Uiso 1 1 calc R
C6 C 0.1335(4) 0.00262(6) 0.8144(3) 0.0432(6) Uani 1 1 d .
H6 H 0.0117 -0.0008 0.8461 0.052 Uiso 1 1 calc R
C7 C 0.2664(4) 0.03101(6) 0.8749(3) 0.0347(5) Uani 1 1 d .
H7 H 0.2352 0.0466 0.9470 0.042 Uiso 1 1 calc R
C8 C 0.2687(3) 0.11717(5) 0.7730(3) 0.0281(5) Uani 1 1 d .
H8A H 0.2763 0.1263 0.8786 0.034 Uiso 1 1 calc R
H8B H 0.1642 0.0980 0.7443 0.034 Uiso 1 1 calc R
C9 C 0.2112(3) 0.14648(5) 0.6442(2) 0.0248(4) Uani 1 1 d .
C10 C 0.3178(3) 0.18136(5) 0.7130(3) 0.0301(5) Uani 1 1 d .
H10A H 0.4668 0.1770 0.7782 0.036 Uiso 1 1 calc R
H10B H 0.3188 0.1969 0.6246 0.036 Uiso 1 1 calc R
C11 C 0.2028(4) 0.19940(6) 0.8150(3) 0.0432(6) Uani 1 1 d .
H11A H 0.2073 0.1843 0.9061 0.052 Uiso 1 1 calc R
H11B H 0.2772 0.2213 0.8575 0.052 Uiso 1 1 calc R
C12 C -0.0284(4) 0.20747(6) 0.7208(3) 0.0461(6) Uani 1 1 d .
H12A H -0.1079 0.2121 0.7956 0.055 Uiso 1 1 calc R
H12B H -0.0341 0.2287 0.6568 0.055 Uiso 1 1 calc R
C13 C -0.1327(4) 0.17800(7) 0.6121(3) 0.0437(6) Uani 1 1 d .
H13 H -0.2822 0.1787 0.5642 0.052 Uiso 1 1 calc R
C14 C -0.0286(3) 0.15097(6) 0.5789(3) 0.0316(5) Uani 1 1 d .
H14 H -0.1088 0.1335 0.5104 0.038 Uiso 1 1 calc R
C15 C 0.3105(3) 0.13152(5) 0.5225(2) 0.0252(4) Uani 1 1 d .
C16 C 0.2656(3) 0.14065(5) 0.3695(2) 0.0285(5) Uani 1 1 d .
C17 C 0.1103(3) 0.16721(5) 0.2783(2) 0.0290(5) Uani 1 1 d .
C18 C 0.1701(4) 0.20198(6) 0.2728(3) 0.0398(6) Uani 1 1 d .
H18 H 0.3119 0.2088 0.3268 0.048 Uiso 1 1 calc R
C19 C 0.0231(4) 0.22652(6) 0.1887(3) 0.0484(6) Uani 1 1 d .
H19 H 0.0653 0.2500 0.1863 0.058 Uiso 1 1 calc R
C20 C -0.1846(4) 0.21685(7) 0.1083(3) 0.0480(6) Uani 1 1 d .
H20 H -0.2844 0.2336 0.0513 0.058 Uiso 1 1 calc R
C21 C -0.2452(4) 0.18247(7) 0.1120(3) 0.0519(7) Uani 1 1 d .
H21 H -0.3875 0.1758 0.0583 0.062 Uiso 1 1 calc R
C22 C -0.0982(4) 0.15763(6) 0.1942(3) 0.0447(6) Uani 1 1 d .
H22 H -0.1401 0.1341 0.1931 0.054 Uiso 1 1 calc R
C23 C 0.4713(3) 0.10350(5) 0.6015(2) 0.0286(5) Uani 1 1 d .
H23A H 0.4227 0.0804 0.5560 0.034 Uiso 1 1 calc R
H23B H 0.6114 0.1085 0.5898 0.034 Uiso 1 1 calc R
N1 N 0.4805(3) 0.10548(4) 0.7704(2) 0.0268(4) Uani 1 1 d .
O1 O 0.8028(2) 0.06853(4) 0.8608(2) 0.0411(4) Uani 1 1 d .
O2 O 0.6015(3) 0.08324(4) 1.04681(17) 0.0378(4) Uani 1 1 d .
S1 S 0.60438(8) 0.073830(13) 0.89045(6) 0.02861(17) Uani 1 1 d .
Cl1 Cl 0.39841(10) 0.118519(16) 0.25376(7) 0.0424(2) Uani 1 1 d .
loop_
_atom_site_aniso_label
_atom_site_aniso_U_11
_atom_site_aniso_U_22
_atom_site_aniso_U_33
_atom_site_aniso_U_23
_atom_site_aniso_U_13
_atom_site_aniso_U_12
C1 0.0290(11) 0.0245(10) 0.0282(11) 0.0033(8) 0.0062(9) 0.0047(8)
C2 0.0425(13) 0.0311(11) 0.0371(13) 0.0011(9) 0.0150(10) 0.0074(10)
C3 0.0650(17) 0.0300(12) 0.0379(14) -0.0051(10) 0.0095(12) 0.0071(11)
C4 0.0463(15) 0.0302(11) 0.0425(14) 0.0079(10) -0.0062(11) -0.0024(10)
C5 0.072(2) 0.0414(15) 0.071(2) 0.0076(14) -0.0165(17) -0.0173(14)
C6 0.0343(13) 0.0397(13) 0.0518(15) 0.0131(11) 0.0083(11) -0.0005(10)
C7 0.0352(13) 0.0319(11) 0.0379(13) 0.0038(9) 0.0130(10) 0.0047(9)
C8 0.0291(11) 0.0286(10) 0.0302(11) 0.0034(8) 0.0144(9) 0.0046(8)
C9 0.0237(11) 0.0252(10) 0.0257(10) 0.0004(8) 0.0083(8) 0.0011(8)
C10 0.0270(11) 0.0274(10) 0.0344(12) -0.0026(9) 0.0077(9) 0.0000(8)
C11 0.0466(15) 0.0362(12) 0.0445(14) -0.0110(10) 0.0117(12) 0.0062(10)
C12 0.0472(15) 0.0428(13) 0.0540(16) -0.0008(11) 0.0242(13) 0.0150(11)
C13 0.0278(12) 0.0535(15) 0.0502(15) 0.0050(12) 0.0130(11) 0.0089(11)
C14 0.0239(11) 0.0365(11) 0.0341(12) 0.0018(9) 0.0089(9) -0.0008(9)
C15 0.0231(10) 0.0237(9) 0.0302(11) -0.0011(8) 0.0104(9) -0.0030(8)
C16 0.0291(11) 0.0281(10) 0.0305(11) -0.0041(8) 0.0127(9) -0.0048(8)
C17 0.0334(12) 0.0315(11) 0.0220(10) 0.0009(8) 0.0086(9) -0.0021(9)
C18 0.0324(13) 0.0361(12) 0.0465(14) 0.0007(10) 0.0066(10) -0.0048(10)
C19 0.0484(16) 0.0319(12) 0.0605(17) 0.0067(11) 0.0113(13) 0.0009(11)
C20 0.0475(16) 0.0483(15) 0.0432(15) 0.0123(11) 0.0073(12) 0.0101(12)
C21 0.0376(14) 0.0641(17) 0.0395(14) 0.0109(12) -0.0080(11) -0.0083(12)
C22 0.0460(15) 0.0397(13) 0.0382(14) 0.0059(10) -0.0008(11) -0.0122(11)
C23 0.0272(11) 0.0294(10) 0.0323(12) 0.0013(8) 0.0139(9) 0.0019(8)
N1 0.0252(9) 0.0258(9) 0.0299(9) 0.0025(7) 0.0098(7) 0.0043(7)
O1 0.0244(8) 0.0402(9) 0.0570(11) 0.0042(7) 0.0107(7) 0.0056(7)
O2 0.0459(10) 0.0351(8) 0.0266(8) -0.0018(6) 0.0034(7) 0.0053(7)
S1 0.0258(3) 0.0265(3) 0.0307(3) 0.0011(2) 0.0051(2) 0.0040(2)
Cl1 0.0507(4) 0.0483(4) 0.0347(3) -0.0013(2) 0.0228(3) 0.0074(3)
loop_
_atom_type_symbol
_atom_type_description
_atom_type_scat_dispersion_real
_atom_type_scat_dispersion_imag
_atom_type_scat_source
C C 0.0033 0.0016 'International Tables Vol C Tables 4.2.6.8 and 6.1.1.4'
H H 0.0000 0.0000 'International Tables Vol C Tables 4.2.6.8 and 6.1.1.4'
N N 0.0061 0.0033 'International Tables Vol C Tables 4.2.6.8 and 6.1.1.4'
O O 0.0106 0.0060 'International Tables Vol C Tables 4.2.6.8 and 6.1.1.4'
S S 0.1246 0.1234 'International Tables Vol C Tables 4.2.6.8 and 6.1.1.4'
Cl Cl 0.1484 0.1585 'International Tables Vol C Tables 4.2.6.8 and 6.1.1.4'
loop_
_geom_angle_atom_site_label_1
_geom_angle_atom_site_label_2
_geom_angle_atom_site_label_3
_geom_angle
C7 C1 C2 120.4(2)
C7 C1 S1 119.82(16)
C2 C1 S1 119.60(17)
C3 C2 C1 119.3(2)
C3 C2 H2 120.4
C1 C2 H2 120.4
C2 C3 C4 121.2(2)
C2 C3 H3 119.4
C4 C3 H3 119.4
C6 C4 C3 118.4(2)
C6 C4 C5 121.1(3)
C3 C4 C5 120.5(3)
C4 C5 H5A 109.5
C4 C5 H5B 109.5
H5A C5 H5B 109.5
C4 C5 H5C 109.5
H5A C5 H5C 109.5
H5B C5 H5C 109.5
C4 C6 C7 121.5(2)
C4 C6 H6 119.3
C7 C6 H6 119.3
C1 C7 C6 119.1(2)
C1 C7 H7 120.4
C6 C7 H7 120.4
N1 C8 C9 102.61(15)
N1 C8 H8A 111.2
C9 C8 H8A 111.2
N1 C8 H8B 111.2
C9 C8 H8B 111.2
H8A C8 H8B 109.2
C14 C9 C15 113.93(17)
C14 C9 C10 110.05(16)
C15 C9 C10 110.74(16)
C14 C9 C8 109.95(16)
C15 C9 C8 100.55(15)
C10 C9 C8 111.31(16)
C11 C10 C9 112.03(18)
C11 C10 H10A 109.2
C9 C10 H10A 109.2
C11 C10 H10B 109.2
C9 C10 H10B 109.2
H10A C10 H10B 107.9
C12 C11 C10 112.0(2)
C12 C11 H11A 109.2
C10 C11 H11A 109.2
C12 C11 H11B 109.2
C10 C11 H11B 109.2
H11A C11 H11B 107.9
C13 C12 C11 111.94(19)
C13 C12 H12A 109.2
C11 C12 H12A 109.2
C13 C12 H12B 109.2
C11 C12 H12B 109.2
H12A C12 H12B 107.9
C14 C13 C12 124.3(2)
C14 C13 H13 117.9
C12 C13 H13 117.9
C13 C14 C9 124.0(2)
C13 C14 H14 118.0
C9 C14 H14 118.0
C16 C15 C23 123.22(18)
C16 C15 C9 127.14(18)
C23 C15 C9 109.63(16)
C15 C16 C17 128.31(19)
C15 C16 Cl1 118.07(16)
C17 C16 Cl1 113.60(15)
C22 C17 C18 118.5(2)
C22 C17 C16 120.25(19)
C18 C17 C16 121.22(19)
C19 C18 C17 120.6(2)
C19 C18 H18 119.7
C17 C18 H18 119.7
C20 C19 C18 120.4(2)
C20 C19 H19 119.8
C18 C19 H19 119.8
C21 C20 C19 119.5(2)
C21 C20 H20 120.2
C19 C20 H20 120.2
C20 C21 C22 120.4(2)
C20 C21 H21 119.8
C22 C21 H21 119.8
C21 C22 C17 120.5(2)
C21 C22 H22 119.8
C17 C22 H22 119.8
N1 C23 C15 102.98(15)
N1 C23 H23A 111.2
C15 C23 H23A 111.2
N1 C23 H23B 111.2
C15 C23 H23B 111.2
H23A C23 H23B 109.1
C23 N1 C8 107.38(16)
C23 N1 S1 117.66(13)
C8 N1 S1 119.47(13)
O1 S1 O2 120.51(10)
O1 S1 N1 106.42(9)
O2 S1 N1 106.14(9)
O1 S1 C1 108.31(10)
O2 S1 C1 108.45(10)
N1 S1 C1 106.15(9)
loop_
_geom_bond_atom_site_label_1
_geom_bond_atom_site_label_2
_geom_bond_distance
C1 C7 1.384(3)
C1 C2 1.392(3)
C1 S1 1.765(2)
C2 C3 1.382(3)
C2 H2 0.9400
C3 C4 1.391(4)
C3 H3 0.9400
C4 C6 1.382(4)
C4 C5 1.514(3)
C5 H5A 0.9700
C5 H5B 0.9700
C5 H5C 0.9700
C6 C7 1.388(3)
C6 H6 0.9400
C7 H7 0.9400
C8 N1 1.473(3)
C8 C9 1.551(3)
C8 H8A 0.9800
C8 H8B 0.9800
C9 C14 1.509(3)
C9 C15 1.534(3)
C9 C10 1.536(3)
C10 C11 1.514(3)
C10 H10A 0.9800
C10 H10B 0.9800
C11 C12 1.515(3)
C11 H11A 0.9800
C11 H11B 0.9800
C12 C13 1.494(4)
C12 H12A 0.9800
C12 H12B 0.9800
C13 C14 1.323(3)
C13 H13 0.9400
C14 H14 0.9400
C15 C16 1.329(3)
C15 C23 1.509(3)
C16 C17 1.481(3)
C16 Cl1 1.759(2)
C17 C22 1.386(3)
C17 C18 1.390(3)
C18 C19 1.380(3)
C18 H18 0.9400
C19 C20 1.375(4)
C19 H19 0.9400
C20 C21 1.376(4)
C20 H20 0.9400
C21 C22 1.383(4)
C21 H21 0.9400
C22 H22 0.9400
C23 N1 1.471(3)
C23 H23A 0.9800
C23 H23B 0.9800
N1 S1 1.6400(17)
O1 S1 1.4276(16)
O2 S1 1.4288(16)
