#------------------------------------------------------------------------------
#$Date: 2016-02-14 16:26:36 +0200 (Sun, 14 Feb 2016) $
#$Revision: 176435 $
#$URL: svn://www.crystallography.net/cod/cif/1/50/74/1507476.cif $
#------------------------------------------------------------------------------
#
# This file is available in the Crystallography Open Database (COD),
# http://www.crystallography.net/
#
# All data on this site have been placed in the public domain by the
# contributors.
#
data_1507476
loop_
_publ_author_name
'Yamada, Ken-ichi'
'Fujihara, Hidetaka'
'Yamamoto, Yasutomo'
'Miwa, Yoshihisa'
'Taga, Tooru'
'Tomioka, Kiyoshi'
_publ_section_title
;
 Radical Addition of Ethers to Imines Initiated by Dimethylzinc
;
_journal_issue                   20
_journal_name_full               'Organic Letters'
_journal_page_first              3509
_journal_paper_doi               10.1021/ol0266572
_journal_volume                  4
_journal_year                    2002
_chemical_compound_source        synthetic
_chemical_formula_sum            'C18 H20 Cl N O3 S'
_chemical_formula_weight         365.86
_chemical_name_common            gouseiyamada
_space_group_IT_number           2
_symmetry_cell_setting           triclinic
_symmetry_space_group_name_Hall  '-P 1'
_symmetry_space_group_name_H-M   'P -1'
_cell_angle_alpha                98.16(2)
_cell_angle_beta                 101.84(2)
_cell_angle_gamma                84.16(2)
_cell_formula_units_Z            2
_cell_length_a                   10.218(2)
_cell_length_b                   11.247(3)
_cell_length_c                   8.086(2)
_cell_measurement_reflns_used    25
_cell_measurement_temperature    295.0
_cell_measurement_theta_max      24.89
_cell_measurement_theta_min      22.81
_cell_volume                     897.7(4)
_computing_cell_refinement       NSC/AFC
_computing_data_collection       Rigaku/AFC5
_computing_data_reduction        NSC/AFC
_computing_molecular_graphics    KPPXRAY
_computing_publication_material  EDCIF-J
_computing_structure_refinement  'Full Matrix Least Squares'
_computing_structure_solution    MULTAN88
_diffrn_ambient_temperature      295.0
_diffrn_measurement_device       diffractometer
_diffrn_measurement_method       \q/2\q
_diffrn_radiation_monochromator  graphaite
_diffrn_radiation_source         rotarix
_diffrn_radiation_type           CU
_diffrn_radiation_wavelength     1.54051
_diffrn_reflns_av_R_equivalents  0.063
_diffrn_reflns_limit_h_max       11
_diffrn_reflns_limit_h_min       0
_diffrn_reflns_limit_k_max       12
_diffrn_reflns_limit_k_min       -12
_diffrn_reflns_limit_l_max       8
_diffrn_reflns_limit_l_min       -9
_diffrn_reflns_number            2812
_diffrn_reflns_reduction_process NSC/AFC
_diffrn_reflns_theta_max         60
_diffrn_reflns_theta_min         1
_diffrn_standards_decay_%        2
_diffrn_standards_interval_count 56
_diffrn_standards_number         3
_exptl_absorpt_coefficient_mu    3.103
_exptl_absorpt_correction_type   none
_exptl_crystal_colour            colorless
_exptl_crystal_density_diffrn    1.3532
_exptl_crystal_description       prism
_exptl_crystal_F_000             384
_exptl_crystal_size_max          0.40
_exptl_crystal_size_mid          0.30
_exptl_crystal_size_min          0.30
_refine_diff_density_max         0.29
_refine_diff_density_min         -0.45
_refine_ls_extinction_method     none
_refine_ls_goodness_of_fit_obs   1.02
_refine_ls_hydrogen_treatment    'refxyz from D-map'
_refine_ls_matrix_type           full
_refine_ls_number_parameters     288
_refine_ls_number_reflns         2557
_refine_ls_R_factor_obs          0.051
_refine_ls_shift/esd_max         0.08
_refine_ls_structure_factor_coef F
_refine_ls_weighting_details     w=1/(\s^2^(F)+0.023)
_refine_ls_weighting_scheme      calc
_refine_ls_wR_factor_obs         0.063
_reflns_number_total             2719
_reflns_observed_criterion       F>3\s(F)
_cod_data_source_file            ol0266572_s2.cif
_cod_data_source_block           GOUSEI
_cod_depositor_comments
;
The following automatic conversions were performed:

'_refine_ls_weighting_scheme' value 'calc w=1/(\s^2^(F)+0.023)' was
changed to 'calc'. New tag '_refine_ls_weighting_details' was
created. The value of the new tag was set to 'w=1/(\s^2^(F)+0.023)'.

Automatic conversion script
Id: cif_fix_values 3143 2015-03-26 13:38:13Z robertas 
;
_cod_original_cell_volume        897.7
_cod_original_formula_sum        'C18 H20 O3 N1 S1 Cl1'
_cod_database_code               1507476
loop_
_symmetry_equiv_pos_as_xyz
+X,+Y,+Z
-X,-Y,-Z
loop_
_atom_site_aniso_label
_atom_site_aniso_U_11
_atom_site_aniso_U_22
_atom_site_aniso_U_33
_atom_site_aniso_U_12
_atom_site_aniso_U_13
_atom_site_aniso_U_23
Cl1 .104(1) .0880(6) .0959(9) .0230(6) .0659(8) .0049(9)
S1 .0373(5) .0443(6) .0387(6) -.0034(6) .0127(4) .0062(4)
C1 .059(3) .059(2) .074(3) -.005(2) .022(2) -.013(2)
C2 .069(3) .079(3) .073(3) -.013(3) .035(3) -.023(3)
C3 .067(3) .079(3) .044(2) -.017(2) .021(2) -.003(2)
C4 .041(2) .053(2) .042(2) -.004(2) .009(2) .004(2)
C5 .042(2) .045(2) .041(2) -.002(2) .012(2) .005(2)
C6 .038(2) .043(2) .040(2) -.006(2) .007(2) .002(1)
C7 .058(3) .051(2) .049(2) .007(2) .017(2) .007(2)
C8 .067(3) .061(2) .053(2) .001(2) .027(2) .008(2)
C9 .057(3) .056(2) .053(2) .000(2) .026(2) -.008(2)
C10 .057(3) .045(2) .071(3) .004(2) .019(2) .002(2)
C11 .055(3) .044(2) .056(2) -.003(2) .017(2) .005(2)
C12 .095(5) .093(4) .079(4) -.003(4) .040(4) -.027(4)
C13 .054(3) .057(2) .053(2) -.007(2) .019(2) -.004(2)
C14 .065(3) .042(2) .072(3) .000(2) .018(2) -.003(2)
C15 .058(3) .046(2) .052(2) -.004(2) .014(2) .011(2)
C16 .037(2) .041(2) .040(2) -.007(2) .010(2) .002(1)
C17 .071(3) .043(2) .046(2) -.003(2) .021(2) .009(2)
C18 .079(3) .061(2) .046(2) -.011(2) .023(2) .007(2)
N1 .040(2) .043(2) .040(2) -.003(1) .007(1) .002(1)
O1 .052(2) .060(1) .047(2) -.006(1) .020(1) .015(1)
O2 .037(2) .056(1) .054(2) .003(1) .011(1) .009(1)
O3 .062(2) .052(1) .052(2) -.012(1) .024(1) -.005(1)
loop_
_atom_site_label
_atom_site_fract_x
_atom_site_fract_y
_atom_site_fract_z
_atom_site_U_iso_or_equiv
_atom_site_thermal_displace_type
Cl1 1.1664(1) 0.1426(1) 0.3533(2) .0920(5) Ueq
S1 0.51348(8) 0.32054(7) 0.5980(1) .0392(4) Ueq
C1 0.7990(5) 0.6601(4) 0.9478(6) .065(2) Ueq
C2 0.7757(6) 0.6225(5) 1.1089(7) .073(2) Ueq
C3 0.7331(5) 0.4955(4) 1.0524(5) .062(2) Ueq
C4 0.8196(4) 0.4495(3) 0.9215(5) .046(1) Ueq
C5 0.7603(3) 0.3551(3) 0.7787(4) .042(1) Ueq
C6 0.8602(3) 0.3027(3) 0.6659(4) .040(1) Ueq
C7 0.8854(4) 0.3630(3) 0.5395(5) .053(1) Ueq
C8 0.9808(4) 0.3144(4) 0.4420(5) .059(2) Ueq
C9 1.0483(4) 0.2056(3) 0.4757(5) .055(1) Ueq
C10 1.0259(4) 0.1456(4) 0.6000(5) .058(2) Ueq
C11 0.9303(4) 0.1944(3) 0.6949(5) .051(1) Ueq
C12 0.6964(8) 0.0095(6) 0.0016(9) .089(3) Ueq
C13 0.6476(4) 0.0867(3) 0.1501(5) .054(2) Ueq
C14 0.6409(4) 0.0378(4) 0.2940(6) .060(2) Ueq
C15 0.5988(4) 0.1084(3) 0.4322(5) .051(1) Ueq
C16 0.5621(3) 0.2284(3) 0.4212(4) .039(1) Ueq
C17 0.5659(4) 0.2778(3) 0.2776(5) .052(1) Ueq
C18 0.6082(4) 0.2055(4) 0.1432(5) .060(2) Ueq
N1 0.6340(3) 0.4053(3) 0.6869(4) .041(1) Ueq
O1 0.5001(2) 0.2434(2) 0.7174(3) .0506(9) Ueq
O2 0.4027(2) 0.4019(2) 0.5356(3) .0491(9) Ueq
O3 0.8408(2) 0.5522(2) 0.8479(3) .0544(9) Ueq
H1 0.624(4) 0.474(3) 0.638(5) .08(1) Uiso
H1A 0.874(4) 0.720(4) 0.977(5) .09(1) Uiso
H1B 0.713(5) 0.697(4) 0.874(6) .10(1) Uiso
H2A 0.713(4) 0.678(3) 1.134(5) .08(1) Uiso
H2B 0.860(5) 0.625(4) 1.191(5) .09(1) Uiso
H3A 0.627(4) 0.498(3) 0.992(5) .08(1) Uiso
H3B 0.749(4) 0.451(3) 1.141(5) .05(1) Uiso
H4 0.903(4) 0.414(3) 0.979(4) .06(1) Uiso
H5 0.741(3) 0.285(3) 0.835(4) .041(9) Uiso
H7 0.837(3) 0.439(3) 0.505(4) .06(1) Uiso
H8 0.999(4) 0.354(3) 0.349(5) .06(1) Uiso
H10 1.074(4) 0.071(3) 0.621(5) .08(1) Uiso
H11 0.914(3) 0.150(3) 0.783(4) .05(1) Uiso
H12A 0.685(5) 0.039(5) -0.095(7) .13(3) Uiso
H12B 0.647(5) -0.063(4) -0.039(6) .11(3) Uiso
H12C 0.785(5) -0.004(5) 0.032(6) .11(3) Uiso
H14 0.664(3) -0.045(3) 0.305(4) .06(1) Uiso
H15 0.597(3) 0.071(3) 0.533(4) .06(1) Uiso
H17 0.551(4) 0.359(3) 0.271(4) .06(1) Uiso
H18 0.610(4) 0.243(3) 0.053(5) .08(1) Uiso
loop_
_atom_type_symbol
_atom_type_oxidation_number
_atom_type_number_in_cell
_atom_type_scat_dispersion_real
_atom_type_scat_dispersion_imag
_atom_type_scat_source
C 0 36 0.017 0.009 International_Tables_Vol_IV_Table_2.2B
H 0 40 0.000 0.000 International_Tables_Vol_IV_Table_2.2B
O 0 6 0.047 0.032 International_Tables_Vol_IV_Table_2.2B
N 0 2 0.029 0.018 International_Tables_Vol_IV_Table_2.2B
S 0 2 0.319 0.557 International_Tables_Vol_IV_Table_2.2B
CL 0 2 0.355 1.423 International_Tables_Vol_IV_Table_2.2B
loop_
_geom_angle_atom_site_label_1
_geom_angle_atom_site_label_2
_geom_angle_atom_site_label_3
_geom_angle
_geom_angle_publ_flag
C16 S1 N1 108.3(2) yes
C16 S1 O1 107.4(2) yes
C16 S1 O2 108.2(1) yes
N1 S1 O1 107.4(2) yes
N1 S1 O2 105.2(1) yes
O1 S1 O2 119.9(1) yes
C2 C1 O3 106.4(4) yes
C1 C2 C3 102.7(4) yes
C2 C3 C4 101.8(4) yes
C3 C4 C5 115.8(3) yes
C3 C4 O3 106.1(3) yes
C5 C4 O3 108.5(3) yes
C4 C5 C6 112.3(3) yes
C4 C5 N1 109.2(3) yes
C6 C5 N1 114.3(3) yes
C5 C6 C7 121.9(3) yes
C5 C6 C11 118.9(3) yes
C7 C6 C11 119.2(3) yes
C6 C7 C8 120.5(3) yes
C7 C8 C9 118.2(4) yes
Cl1 C9 C8 118.8(3) yes
Cl1 C9 C10 119.0(3) yes
C8 C9 C10 122.2(4) yes
C9 C10 C11 119.0(4) yes
C6 C11 C10 120.9(4) yes
C12 C13 C14 120.6(4) yes
C12 C13 C18 121.0(4) yes
C14 C13 C18 118.4(4) yes
C13 C14 C15 121.1(4) yes
C14 C15 C16 118.7(4) yes
S1 C16 C15 119.3(3) yes
S1 C16 C17 119.8(3) yes
C15 C16 C17 120.9(3) yes
C16 C17 C18 119.0(3) yes
C13 C18 C17 122.0(4) yes
S1 N1 C5 121.2(3) yes
C1 O3 C4 109.6(3) yes
loop_
_geom_bond_atom_site_label_1
_geom_bond_atom_site_label_2
_geom_bond_distance
_geom_bond_publ_flag
CL1 C9 1.748(4) yes
S1 C16 1.769(3) yes
S1 N1 1.620(3) yes
S1 O1 1.421(3) yes
S1 O2 1.435(2) yes
C1 C2 1.496(8) yes
C1 O3 1.437(5) yes
C2 C3 1.516(7) yes
C3 C4 1.518(6) yes
C4 C5 1.524(5) yes
C4 O3 1.426(5) yes
C5 C6 1.526(5) yes
C5 N1 1.454(4) yes
C6 C7 1.382(6) yes
C6 C11 1.373(5) yes
C7 C8 1.398(6) yes
C8 C9 1.376(5) yes
C9 C10 1.355(6) yes
C10 C11 1.387(6) yes
C12 C13 1.519(8) yes
C13 C14 1.372(7) yes
C13 C18 1.361(6) yes
C14 C15 1.393(6) yes
C15 C16 1.374(5) yes
C16 C17 1.365(6) yes
C17 C18 1.378(6) yes
loop_
_geom_torsion_atom_site_label_1
_geom_torsion_atom_site_label_2
_geom_torsion_atom_site_label_3
_geom_torsion_atom_site_label_4
_geom_torsion
_geom_torsion_publ_flag
Cl1 C9 C10 C11 -178.7(3) no
S1 C16 C17 C18 177.9(3) no
C1 C2 C3 C4 36.0(4) no
C2 C1 O3 C4 11.2(4) no
C2 C3 C4 C5 -150.6(3) no
C2 C3 C4 O3 -30.2(4) no
C3 C4 C5 C6 -172.9(3) no
C3 C4 C5 N1 59.3(4) no
C3 C4 O3 C1 12.3(4) no
C4 C5 C6 C7 -79.7(4) no
C4 C5 C6 C11 98.1(4) no
C4 C5 N1 S1 -149.3(3) no
C5 C4 O3 C1 137.3(3) no
C5 C6 C7 C8 177.9(3) no
C5 C6 C11 C10 -177.5(3) no
C6 C5 N1 S1 84.1(4) no
C6 C7 C8 C9 -0.1(4) no
C7 C6 C11 C10 0.3(5) no
C7 C8 C9 CL1 179.2(3) no
C7 C8 C9 C10 -0.5(6) no
C8 C9 C10 C11 1.0(6) no
C9 C10 C11 C6 -0.9(5) no
C11 C6 C7 C8 0.1(5) no
C12 C13 C14 C15 178.7(5) no
C12 C13 C18 C17 -178.8(5) no
C13 C14 C15 C16 0.9(6) no
C14 C13 C18 C17 1.9(6) no
C14 C15 C16 S1 -178.0(3) no
C14 C15 C16 C17 0.4(5) no
C15 C16 C17 C18 -0.4(5) no
C16 S1 N1 C5 -70.0(3) no
C16 C17 C18 C13 -0.7(6) no
C18 C13 C14 C15 -1.9(6) no
N1 S1 C16 C15 105.9(3) no
N1 S1 C16 C17 -72.5(3) no
N1 C5 C6 C7 45.3(4) no
N1 C5 C6 C11 -137.0(3) no
O1 S1 C16 C15 -9.8(3) no
O1 S1 C16 C17 171.8(3) no
O1 S1 N1 C5 45.7(3) no
O2 S1 C16 C15 -140.6(3) no
O2 S1 C16 C17 41.1(3) no
O2 S1 N1 C5 174.5(3) no
O3 C1 C2 C3 -29.9(5) no
O3 C4 C5 C6 68.0(3) no
O3 C4 C5 N1 -59.8(4) no
loop_
_refln_index_h
_refln_index_k
_refln_index_l
_refln_F_meas
_refln_F_calc
0 -10 0 0.8 1.1
0 -9 3 1.0 1.4
0 -7 4 1.0 1.1
0 0 1 51.4 58.4
0 0 2 17.2 18.5
0 0 3 21.2 22.4
0 0 4 17.8 19.1
0 0 5 2.1 2.4
0 0 6 3.8 3.3
0 0 7 11.3 11.7
0 0 8 4.2 4.7
0 1 -8 2.0 2.4
0 1 -7 8.7 9.1
0 1 -6 4.5 4.6
0 1 -5 1.1 1.6
0 1 -4 4.0 3.4
0 1 -3 28.6 30.8
0 1 -2 4.6 6.1
0 1 -1 22.9 32.7
0 1 0 34.9 35.2
0 1 1 1.9 1.9
0 1 2 39.9 39.1
0 1 3 14.0 12.7
0 1 4 3.1 2.9
0 1 5 10.3 10.1
0 1 6 9.8 9.3
0 1 7 3.3 3.1
0 1 8 5.2 4.9
0 2 -8 4.6 4.5
0 2 -7 6.6 6.8
0 2 -6 8.6 8.3
0 2 -5 6.9 7.6
0 2 -4 5.4 4.9
0 2 -3 19.3 23.3
0 2 -2 14.7 19.0
0 2 -1 106.0 128.0
0 2 0 38.7 38.5
0 2 1 5.6 5.0
0 2 2 58.4 53.9
0 2 3 35.5 35.9
0 2 4 14.4 14.0
0 2 6 9.8 10.0
0 2 7 5.6 4.2
0 2 8 2.4 2.6
0 3 -8 6.2 6.8
0 3 -7 2.0 2.2
0 3 -6 6.0 6.5
0 3 -5 6.8 6.3
0 3 -4 17.3 17.8
0 3 -3 13.1 13.8
0 3 -2 6.2 5.9
0 3 -1 5.8 5.6
0 3 0 17.9 18.8
0 3 1 15.3 15.3
0 3 2 11.4 11.6
0 3 3 16.6 14.6
0 3 4 5.7 4.8
0 3 5 24.3 24.5
0 3 6 13.4 13.5
0 3 7 5.7 5.6
0 3 8 5.5 5.3
0 4 -8 4.8 4.2
0 4 -7 14.7 14.6
0 4 -6 11.7 12.9
0 4 -5 5.9 6.9
0 4 -4 32.8 36.3
0 4 -3 9.2 9.7
0 4 -2 1.7 2.3
0 4 -1 29.6 30.3
0 4 0 24.2 24.3
0 4 1 39.3 40.3
0 4 2 14.4 14.3
0 4 3 21.8 21.9
0 4 4 5.4 3.9
0 4 5 17.4 17.4
0 4 6 9.0 8.7
0 4 7 1.1 0.8
0 4 8 2.0 2.3
0 5 -8 5.6 5.5
0 5 -7 4.2 4.8
0 5 -6 9.1 9.9
0 5 -5 14.2 15.6
0 5 -4 7.6 7.9
0 5 -3 3.3 3.5
0 5 -2 4.7 5.1
0 5 -1 15.5 15.4
0 5 0 1.5 2.2
0 5 1 6.5 5.5
0 5 2 7.1 7.3
0 5 3 13.5 13.5
0 5 4 34.2 35.9
0 5 5 14.2 14.8
0 5 6 11.4 11.8
0 5 7 5.1 5.2
0 6 -8 5.6 5.3
0 6 -7 10.8 11.5
0 6 -5 15.4 15.7
0 6 -4 11.9 11.7
0 6 -3 22.1 22.1
0 6 -2 11.6 11.4
0 6 -1 17.5 18.1
0 6 0 13.9 14.6
0 6 1 7.1 7.4
0 6 2 12.7 12.7
0 6 3 8.2 8.4
0 6 4 5.7 6.1
0 6 5 12.0 12.3
0 6 6 9.0 9.1
0 6 7 1.1 0.9
0 7 -7 7.8 7.8
0 7 -6 6.6 7.6
0 7 -5 3.1 2.1
0 7 -3 1.1 0.8
0 7 -2 8.6 8.5
0 7 -1 7.5 7.1
0 7 0 3.6 4.5
0 7 1 7.0 7.5
0 7 2 18.1 18.2
0 7 3 23.8 24.2
0 7 4 11.9 12.4
0 7 6 11.1 11.3
0 8 -7 8.6 7.6
0 8 -6 6.3 5.6
0 8 -5 3.0 2.8
0 8 -4 17.2 18.0
0 8 -3 5.5 6.1
0 8 -2 8.9 8.6
0 8 -1 5.5 5.4
0 8 0 5.7 5.5
0 8 1 2.0 2.3
0 8 2 6.9 6.8
0 8 3 11.7 12.1
0 8 4 2.4 2.6
0 8 5 2.2 1.9
0 8 6 3.7 3.3
0 9 -6 2.9 2.7
0 9 -5 3.7 3.5
0 9 -2 8.5 8.3
0 9 -1 5.0 4.7
0 9 0 11.6 11.1
0 9 1 8.5 8.1
0 9 2 21.9 22.1
0 9 3 6.2 6.5
0 9 4 12.3 12.3
0 9 5 11.8 11.7
0 10 -5 1.2 0.2
0 10 -4 0.9 0.7
0 10 -3 2.1 1.9
0 10 -2 9.7 9.1
0 10 -1 6.6 6.6
0 10 1 3.1 3.0
0 10 2 2.3 1.0
0 10 3 0.9 0.3
0 11 -5 1.7 1.4
0 11 -4 3.6 2.3
0 11 -3 7.9 7.3
0 11 -2 5.0 4.7
0 11 -1 15.0 14.4
0 11 0 10.2 9.1
0 11 1 12.1 12.0
0 11 2 1.4 1.6
0 11 3 7.0 7.0
0 12 -3 4.8 4.9
0 12 -2 2.2 2.2
0 12 -1 3.2 3.3
0 12 1 4.0 3.8
1 -12 -1 10.4 10.0
1 -12 0 9.9 9.8
1 -12 1 0.8 0.1
1 -12 2 5.2 5.7
1 -12 3 1.7 1.3
1 -11 -3 4.2 4.2
1 -11 -2 4.5 4.8
1 -11 0 3.6 3.6
1 -11 1 9.2 9.5
1 -11 3 2.7 2.4
1 -10 -4 9.2 9.6
1 -10 -3 8.2 8.2
1 -10 -2 3.3 3.9
1 -10 -1 9.9 9.8
1 -10 0 6.0 6.1
1 -10 1 13.3 13.8
1 -10 2 8.6 7.5
1 -10 3 11.8 11.6
1 -10 5 1.1 1.2
1 -9 -5 1.1 1.0
1 -9 -4 7.1 7.1
1 -9 -3 13.5 13.9
1 -9 -2 7.7 7.3
1 -9 -1 7.5 8.1
1 -9 0 2.1 2.1
1 -9 1 2.7 2.9
1 -9 2 5.2 5.1
1 -9 3 8.0 8.2
1 -9 4 7.6 7.8
1 -9 5 19.5 19.4
1 -9 6 7.1 6.8
1 -8 -6 2.7 2.6
1 -8 -5 10.9 11.1
1 -8 -4 14.6 14.5
1 -8 -3 11.1 11.5
1 -8 -2 2.7 1.9
1 -8 -1 12.0 11.9
1 -8 0 6.1 6.6
1 -8 1 9.7 9.6
1 -8 2 13.2 13.7
1 -8 3 4.2 4.0
1 -8 4 13.1 12.6
1 -8 5 15.1 15.0
1 -8 6 9.7 8.8
1 -8 7 1.8 2.1
1 -7 -6 2.8 3.3
1 -7 -5 4.6 4.7
1 -7 -4 9.0 9.1
1 -7 -3 11.8 11.7
1 -7 -2 1.8 2.2
1 -7 -1 13.9 13.5
1 -7 0 4.3 4.5
1 -7 1 7.7 7.5
1 -7 2 9.9 9.8
1 -7 3 10.9 12.0
1 -7 4 34.3 35.4
1 -7 5 18.8 19.4
1 -7 6 6.5 6.2
1 -7 7 5.1 4.9
1 -6 -7 3.5 3.3
1 -6 -6 1.1 1.1
1 -6 -5 19.8 19.8
1 -6 -4 1.4 1.2
1 -6 -3 7.2 7.6
1 -6 -2 5.4 6.3
1 -6 -1 11.3 12.1
1 -6 0 11.2 10.4
1 -6 1 25.3 24.5
1 -6 2 15.5 16.2
1 -6 3 11.9 12.2
1 -6 4 21.6 22.9
1 -6 5 10.8 10.8
1 -6 6 2.0 1.8
1 -6 7 3.2 3.4
1 -6 8 6.5 6.8
1 -5 -7 2.9 2.4
1 -5 -6 1.2 1.1
1 -5 -5 13.7 13.7
1 -5 -4 6.2 6.2
1 -5 -3 13.5 13.2
1 -5 -2 12.6 12.0
1 -5 -1 3.7 3.5
1 -5 0 16.6 16.3
1 -5 1 12.2 11.6
1 -5 2 7.7 8.9
1 -5 3 25.9 26.5
1 -5 4 2.1 2.4
1 -5 5 8.2 10.8
1 -5 6 10.8 12.4
1 -5 7 6.3 6.6
1 -5 8 1.4 1.4
1 -4 -8 9.9 9.7
1 -4 -7 3.2 3.3
1 -4 -6 19.1 19.0
1 -4 -5 9.0 9.3
1 -4 -4 1.6 1.7
1 -4 -3 26.1 25.8
1 -4 -2 45.5 46.7
1 -4 -1 1.1 0.6
1 -4 0 40.7 42.1
1 -4 1 33.8 36.6
1 -4 2 5.2 6.5
1 -4 3 10.0 10.1
1 -4 4 0.9 1.0
1 -4 5 1.9 2.0
1 -4 6 10.3 11.8
1 -4 7 10.4 11.6
1 -4 8 3.1 3.9
1 -3 -8 1.9 1.8
1 -3 -7 2.4 2.2
1 -3 -6 12.2 12.1
1 -3 -5 13.7 13.4
1 -3 -4 9.8 9.5
1 -3 -3 12.9 12.8
1 -3 -2 20.2 18.7
1 -3 -1 4.3 4.6
1 -3 0 31.1 32.7
1 -3 1 29.0 32.5
1 -3 2 7.3 8.6
1 -3 3 21.7 21.7
1 -3 4 11.5 12.3
1 -3 5 18.6 22.4
1 -3 6 2.7 2.7
1 -3 7 2.0 2.4
1 -3 8 2.7 3.0
1 -2 -8 13.6 13.2
1 -2 -7 10.8 10.3
1 -2 -6 16.2 16.1
1 -2 -5 10.9 10.7
1 -2 -4 41.5 39.1
1 -2 -3 54.7 52.8
1 -2 -2 37.9 35.7
1 -2 -1 9.1 9.2
1 -2 0 17.0 17.7
1 -2 1 42.3 45.6
1 -2 2 23.1 25.0
1 -2 3 1.6 1.6
1 -2 4 13.6 15.6
1 -2 5 8.6 9.4
1 -2 6 4.8 5.4
1 -2 7 5.3 6.3
1 -2 8 6.9 7.9
1 -1 -7 7.7 6.8
1 -1 -5 1.9 1.6
1 -1 -4 2.8 2.8
1 -1 -3 17.3 16.6
1 -1 -2 29.8 29.3
1 -1 -1 59.6 54.7
1 -1 0 13.3 13.5
1 -1 1 1.7 1.6
1 -1 2 2.0 1.0
1 -1 3 22.3 27.9
1 -1 4 14.6 17.7
1 -1 5 5.5 5.8
1 -1 6 0.8 0.8
1 -1 7 8.7 9.3
1 -1 8 7.7 8.1
1 0 -8 8.5 8.0
1 0 -7 12.8 12.1
1 0 -6 25.5 25.1
1 0 -5 20.8 19.6
1 0 -4 11.3 10.9
1 0 -3 8.3 8.0
1 0 -2 14.4 13.6
1 0 -1 43.9 40.0
1 0 0 35.1 31.8
1 0 1 19.5 20.4
1 0 2 29.4 33.0
1 0 3 1.3 1.8
1 0 4 12.2 13.0
1 0 5 2.6 2.2
1 0 6 4.6 5.4
1 0 7 14.6 16.6
1 0 8 4.4 4.9
1 1 -8 2.0 1.8
1 1 -7 2.5 2.7
1 1 -6 5.0 4.6
1 1 -5 9.4 9.0
1 1 -4 5.5 5.3
1 1 -3 30.9 31.2
1 1 -2 65.0 63.4
1 1 -1 64.2 66.9
1 1 0 14.6 13.7
1 1 1 20.9 21.3
1 1 2 16.8 17.7
1 1 3 4.4 5.5
1 1 4 5.3 4.6
1 1 5 1.6 1.8
1 1 6 11.7 11.7
1 1 7 6.6 6.2
1 1 8 1.8 1.9
1 2 -9 4.5 4.9
1 2 -8 5.6 5.0
1 2 -7 19.4 18.6
1 2 -6 18.6 17.7
1 2 -5 2.2 2.5
1 2 -4 3.3 3.8
1 2 -3 60.1 62.5
1 2 -2 37.7 38.4
1 2 -1 6.3 5.8
1 2 0 4.9 2.9
1 2 1 77.3 76.7
1 2 2 29.0 29.7
1 2 3 4.2 4.4
1 2 4 20.2 20.8
1 2 5 11.3 11.8
1 2 6 9.7 10.2
1 2 7 12.3 13.1
1 2 8 9.3 9.7
1 3 -8 8.3 7.5
1 3 -7 4.5 4.6
1 3 -6 5.0 4.8
1 3 -5 7.1 6.5
1 3 -4 19.8 19.5
1 3 -3 16.4 16.5
1 3 -2 23.9 22.8
1 3 -1 23.0 24.5
1 3 0 48.0 46.9
1 3 1 31.5 33.4
1 3 2 1.8 2.4
1 3 3 11.3 11.3
1 3 4 17.6 18.1
1 3 5 10.4 11.0
1 3 6 0.8 1.0
1 3 7 7.0 7.6
1 3 8 4.5 4.1
1 4 -8 10.3 9.5
1 4 -7 14.9 14.9
1 4 -6 9.3 9.4
1 4 -5 10.1 9.4
1 4 -4 29.5 28.6
1 4 -3 5.6 4.6
1 4 -2 11.9 11.2
1 4 -1 40.3 40.1
1 4 0 5.3 5.5
1 4 1 1.9 1.0
1 4 2 2.5 1.3
1 4 3 41.9 42.4
1 4 4 14.7 14.9
1 4 5 1.9 2.3
1 4 6 5.2 5.1
1 4 7 10.9 11.4
1 5 -8 1.8 1.2
1 5 -7 6.5 6.6
1 5 -6 17.5 16.8
1 5 -5 9.6 9.2
1 5 -4 10.9 10.7
1 5 -3 0.8 0.5
1 5 -2 20.9 20.6
1 5 -1 6.0 6.9
1 5 0 26.7 27.1
1 5 1 2.7 2.3
1 5 2 4.0 4.9
1 5 3 29.1 29.9
1 5 4 10.3 10.5
1 5 5 2.0 2.8
1 5 6 1.9 1.8
1 5 7 5.9 5.8
1 6 -8 8.4 8.4
1 6 -7 5.7 6.6
1 6 -6 11.2 9.3
1 6 -5 5.0 5.1
1 6 -4 7.7 7.6
1 6 -3 5.2 0.9
1 6 -2 25.8 25.3
1 6 -1 14.8 14.4
1 6 0 32.3 30.4
1 6 1 15.0 14.1
1 6 2 11.5 11.6
1 6 3 5.3 5.5
1 6 4 5.6 6.0
1 6 5 10.0 10.6
1 6 6 8.3 8.2
1 6 7 2.1 2.0
1 7 -8 8.8 8.0
1 7 -7 9.6 8.9
1 7 -6 7.5 6.9
1 7 -5 6.3 6.1
1 7 -4 24.9 23.9
1 7 -3 37.1 35.5
1 7 -2 7.8 7.8
1 7 -1 14.4 13.8
1 7 0 10.5 9.6
1 7 1 10.3 10.3
1 7 2 3.9 4.1
1 7 3 20.1 20.1
1 7 4 1.4 0.9
1 7 5 8.6 8.7
1 7 6 5.7 5.7
1 8 -7 5.0 4.5
1 8 -6 4.1 4.1
1 8 -5 4.1 4.0
1 8 -4 12.5 12.4
1 8 -3 4.0 3.5
1 8 -2 3.2 2.8
1 8 -1 2.2 2.6
1 8 0 7.9 7.3
1 8 1 5.2 4.6
1 8 2 3.3 3.1
1 8 3 9.9 9.9
1 8 4 0.8 0.7
1 8 5 7.2 6.6
1 9 -7 2.0 1.8
1 9 -6 2.4 0.9
1 9 -5 14.3 13.2
1 9 -4 32.7 31.0
1 9 -3 19.6 18.8
1 9 -2 15.6 15.3
1 9 -1 13.1 12.3
1 9 0 10.4 10.0
1 9 1 3.5 3.4
1 9 2 13.4 13.7
1 9 4 4.2 3.6
1 9 5 3.1 3.1
1 10 -6 1.7 1.4
1 10 -5 5.1 4.8
1 10 -4 8.0 7.3
1 10 -3 2.9 2.4
1 10 -2 17.7 17.0
1 10 -1 5.4 4.1
1 10 0 8.4 8.0
1 10 1 2.3 2.4
1 10 2 8.7 8.5
1 10 3 4.4 4.7
1 10 4 2.9 2.3
1 11 -5 7.4 7.1
1 11 -4 10.3 9.8
1 11 -3 6.0 6.5
1 11 -2 8.0 7.0
1 11 -1 11.6 11.2
1 11 0 13.9 13.0
1 11 2 3.0 2.8
1 11 3 2.9 2.6
1 12 -3 5.7 5.7
1 12 -2 4.8 3.6
1 12 -1 3.3 3.3
1 12 0 4.2 3.4
1 12 1 8.0 7.6
2 -12 0 1.4 1.2
2 -12 1 8.1 8.6
2 -12 2 7.1 7.0
2 -11 -3 2.5 2.7
2 -11 -2 1.6 1.9
2 -11 -1 3.8 4.2
2 -11 0 9.2 9.6
2 -11 1 6.6 6.6
2 -11 2 8.2 8.0
2 -11 3 2.9 2.2
2 -11 4 5.3 5.0
2 -10 -4 4.9 4.7
2 -10 -3 4.6 3.8
2 -10 -2 2.0 1.3
2 -10 -1 4.1 4.3
2 -10 0 13.0 13.0
2 -10 1 10.3 10.9
2 -10 2 7.7 8.1
2 -10 3 4.1 4.1
2 -10 4 1.6 1.7
2 -10 5 1.6 1.8
2 -9 -5 1.6 1.4
2 -9 -4 5.3 5.2
2 -9 -3 13.3 13.4
2 -9 -2 4.0 4.1
2 -9 -1 10.5 11.0
2 -9 0 11.5 11.9
2 -9 1 14.2 14.9
2 -9 2 2.5 3.0
2 -9 3 7.0 7.1
2 -9 4 8.6 7.8
2 -9 5 6.1 5.5
2 -9 6 0.8 1.1
2 -8 -6 5.9 5.8
2 -8 -5 5.0 5.1
2 -8 -4 1.9 2.3
2 -8 -3 14.6 15.0
2 -8 -2 27.5 28.7
2 -8 -1 3.1 2.8
2 -8 0 10.2 10.7
2 -8 1 7.6 8.5
2 -8 2 4.0 4.0
2 -8 3 3.9 4.2
2 -8 4 15.2 15.7
2 -8 5 16.1 17.5
2 -8 6 1.9 1.7
2 -7 -6 3.3 3.3
2 -7 -5 3.4 3.4
2 -7 -4 7.2 6.9
2 -7 -3 2.3 1.5
2 -7 -2 8.4 8.8
2 -7 -1 16.8 17.0
2 -7 0 3.6 3.7
2 -7 1 4.8 4.7
2 -7 2 16.5 17.1
2 -7 3 18.0 18.8
2 -7 4 5.1 5.0
2 -7 5 10.3 10.4
2 -7 6 11.4 11.3
2 -7 7 5.3 5.0
2 -6 -7 10.3 9.7
2 -6 -6 7.5 7.0
2 -6 -5 3.2 3.0
2 -6 -4 10.9 11.5
2 -6 -3 22.5 22.7
2 -6 -2 1.7 1.2
2 -6 -1 7.6 7.6
2 -6 0 10.7 10.9
2 -6 1 2.1 2.3
2 -6 2 6.0 5.8
2 -6 3 13.6 14.1
2 -6 4 31.5 33.4
2 -6 5 5.1 5.8
2 -6 7 5.1 5.7
2 -5 -7 6.4 6.2
2 -5 -6 1.1 1.0
2 -5 -5 5.4 5.8
2 -5 -4 4.0 4.5
2 -5 -3 33.5 33.4
2 -5 -2 13.3 13.1
2 -5 -1 1.4 1.1
2 -5 0 1.7 3.3
2 -5 1 16.4 17.7
2 -5 2 24.4 25.8
2 -5 3 1.1 1.1
2 -5 4 21.4 21.7
2 -5 5 19.1 19.5
2 -5 6 18.4 18.2
2 -5 7 1.1 1.0
2 -4 -8 9.2 9.0
2 -4 -7 9.3 8.8
2 -4 -6 5.9 6.4
2 -4 -5 6.1 5.6
2 -4 -4 14.2 13.6
2 -4 -3 10.6 9.8
2 -4 -2 6.9 6.5
2 -4 -1 4.1 3.2
2 -4 0 8.2 8.4
2 -4 1 5.7 4.8
2 -4 2 17.0 17.9
2 -4 3 5.9 5.9
2 -4 4 7.8 8.5
2 -4 5 7.1 6.9
2 -4 6 10.0 11.9
2 -4 7 8.9 10.1
2 -4 8 7.9 8.0
2 -3 -8 3.0 3.5
2 -3 -7 9.3 9.4
2 -3 -6 1.1 1.0
2 -3 -5 16.9 16.9
2 -3 -4 43.4 41.6
2 -3 -3 18.0 17.6
2 -3 -2 25.4 23.7
2 -3 -1 42.8 43.9
2 -3 0 22.3 24.3
2 -3 1 0.8 1.1
2 -3 2 14.2 14.6
2 -3 3 22.1 22.9
2 -3 4 19.5 19.8
2 -3 5 2.1 2.5
2 -3 6 2.3 2.4
2 -3 7 2.0 1.5
2 -3 8 1.6 1.4
2 -2 -8 3.8 3.4
2 -2 -7 13.3 13.1
2 -2 -6 11.7 11.4
2 -2 -5 5.8 5.4
2 -2 -4 4.5 4.0
2 -2 -3 28.8 26.0
2 -2 -2 34.6 34.2
2 -2 -1 17.9 16.8
2 -2 0 23.0 24.2
2 -2 1 35.5 36.9
2 -2 2 4.1 4.2
2 -2 3 7.0 6.8
2 -2 4 7.3 7.4
2 -2 5 1.8 1.7
2 -2 6 8.6 9.9
2 -2 7 9.2 9.4
2 -2 8 6.0 6.0
2 -1 -8 11.3 10.8
2 -1 -7 7.7 7.2
2 -1 -6 6.1 6.1
2 -1 -5 24.2 22.7
2 -1 -4 2.5 0.3
2 -1 -3 9.3 7.2
2 -1 -2 76.3 71.1
2 -1 -1 75.5 70.9
2 -1 0 63.1 59.4
2 -1 1 11.9 11.7
2 -1 2 39.1 43.1
2 -1 3 4.7 4.5
2 -1 4 22.8 24.8
2 -1 5 10.4 10.9
2 -1 6 7.4 7.5
2 -1 7 7.1 7.6
2 -1 8 10.2 11.0
2 0 -8 2.3 2.4
2 0 -7 27.4 26.7
2 0 -6 27.8 26.5
2 0 -5 6.9 5.9
2 0 -4 2.2 1.7
2 0 -3 24.7 23.0
2 0 -2 7.6 6.7
2 0 -1 27.0 26.4
2 0 0 18.2 16.7
2 0 1 149.6 162.5
2 0 2 11.1 10.9
2 0 3 20.2 19.1
2 0 4 2.8 3.1
2 0 5 6.8 7.6
2 0 6 3.5 3.3
2 0 7 5.1 4.9
2 1 -9 4.5 4.3
2 1 -8 14.3 13.5
2 1 -7 3.1 3.7
2 1 -6 10.8 10.7
2 1 -5 20.6 20.2
2 1 -4 21.5 21.7
2 1 -3 44.2 44.0
2 1 -2 9.3 8.1
2 1 -1 33.3 33.1
2 1 0 40.7 37.7
2 1 1 21.3 21.7
2 1 2 0.8 0.3
2 1 3 6.0 6.0
2 1 4 9.9 9.8
2 1 5 7.5 6.9
2 1 6 6.5 6.6
2 1 7 11.7 12.7
2 2 -8 10.6 10.4
2 2 -7 12.1 11.7
2 2 -6 8.7 8.6
2 2 -5 7.4 7.0
2 2 -4 18.6 17.7
2 2 -3 17.4 16.3
2 2 -2 17.3 17.1
2 2 -1 19.4 19.6
2 2 0 110.6 125.2
2 2 1 78.7 78.8
2 2 2 41.9 41.8
2 2 3 17.3 17.2
2 2 4 18.0 19.1
2 2 5 7.9 7.6
2 2 6 2.9 2.6
2 2 7 2.3 1.9
2 2 8 5.5 5.4
2 3 -9 10.4 9.7
2 3 -8 1.5 1.2
2 3 -7 3.4 3.4
2 3 -6 20.4 20.0
2 3 -5 27.6 26.9
2 3 -4 16.9 14.3
2 3 -3 36.4 34.4
2 3 -2 44.0 43.2
2 3 -1 42.0 45.4
2 3 0 10.4 9.7
2 3 1 13.0 13.9
2 3 2 30.2 29.5
2 3 3 11.0 11.0
2 3 4 13.1 13.3
2 3 6 13.1 13.9
2 4 -8 2.7 2.3
2 4 -7 5.4 5.1
2 4 -5 12.2 11.7
2 4 -4 6.2 5.4
2 4 -3 34.4 32.6
2 4 -2 18.6 17.2
2 4 -1 2.3 2.2
2 4 0 15.9 15.3
2 4 1 14.6 13.6
2 4 2 38.2 39.3
2 4 3 23.0 23.1
2 4 4 18.3 18.3
2 4 5 2.3 2.1
2 4 6 12.2 12.7
2 4 7 4.3 4.0
2 5 -8 2.6 2.3
2 5 -7 20.0 19.2
2 5 -6 12.9 13.0
2 5 -5 4.4 4.7
2 5 -4 16.5 14.8
2 5 -3 46.2 44.2
2 5 -2 16.4 16.4
2 5 -1 0.8 0.7
2 5 0 12.6 11.7
2 5 1 12.2 11.1
2 5 2 20.7 20.4
2 5 3 15.2 15.5
2 5 4 12.5 12.8
2 5 5 11.7 13.2
2 5 7 5.0 4.8
2 6 -7 2.2 2.5
2 6 -6 6.3 5.9
2 6 -5 3.6 3.3
2 6 -4 12.2 10.9
2 6 -3 6.0 4.9
2 6 -2 4.4 4.3
2 6 -1 14.9 14.3
2 6 0 3.4 3.4
2 6 1 34.0 34.8
2 6 2 13.5 12.4
2 6 3 9.9 9.6
2 6 4 15.9 16.4
2 6 5 14.3 14.8
2 6 6 7.9 7.9
2 7 -8 13.1 12.6
2 7 -7 4.6 4.9
2 7 -6 9.6 9.4
2 7 -5 2.0 1.2
2 7 -4 14.3 14.0
2 7 -3 10.1 9.9
2 7 -2 2.1 1.9
2 7 -1 1.3 1.6
2 7 0 1.0 0.7
2 7 1 9.2 8.7
2 7 2 9.5 9.5
2 7 3 16.5 16.6
2 7 4 8.4 8.9
2 7 6 3.2 2.9
2 8 -6 4.6 4.6
2 8 -5 1.1 1.1
2 8 -4 2.9 2.6
2 8 -3 15.5 15.0
2 8 -2 5.9 5.5
2 8 -1 4.4 4.5
2 8 0 9.7 9.8
2 8 1 11.1 11.0
2 8 2 8.8 8.4
2 8 3 15.2 15.3
2 8 4 2.0 1.8
2 8 5 5.2 5.1
2 9 -7 2.4 1.6
2 9 -6 3.9 2.8
2 9 -5 5.6 5.1
2 9 -4 12.2 12.1
2 9 -3 1.5 1.3
2 9 -2 13.0 12.7
2 9 -1 3.0 2.8
2 9 0 2.4 2.3
2 9 1 10.3 10.2
2 9 2 0.9 0.2
2 9 3 12.6 12.8
2 9 5 4.4 4.5
2 10 -6 6.4 5.2
2 10 -5 1.8 1.4
2 10 -4 2.6 2.9
2 10 -3 8.1 7.0
2 10 -2 4.9 4.3
2 10 -1 8.0 7.1
2 10 0 0.8 0.3
2 10 1 10.1 10.1
2 10 2 4.6 4.2
2 10 3 1.3 1.7
2 10 4 2.3 2.4
2 11 -5 6.5 6.7
2 11 -4 2.8 2.7
2 11 -3 7.4 7.8
2 11 -2 4.7 4.4
2 11 -1 11.6 11.1
2 11 0 10.0 9.4
2 11 2 5.5 5.4
2 12 -4 9.3 8.0
2 12 -3 6.9 6.3
2 12 -2 3.0 2.7
2 12 -1 5.1 4.7
2 12 0 3.4 3.2
2 12 1 3.3 3.0
3 -11 -2 4.3 4.0
3 -11 -1 7.1 7.3
3 -11 1 2.3 1.3
3 -11 2 4.9 4.5
3 -11 3 1.9 1.5
3 -10 -4 9.4 9.1
3 -10 -3 5.0 5.3
3 -10 -2 3.7 3.6
3 -10 -1 4.7 4.8
3 -10 0 8.2 8.2
3 -10 1 2.0 2.3
3 -10 2 5.6 5.9
3 -10 3 4.0 3.6
3 -10 4 4.0 3.7
3 -9 -5 6.4 5.8
3 -9 -4 3.5 3.8
3 -9 -3 9.6 10.0
3 -9 -2 17.8 18.0
3 -9 -1 9.4 9.3
3 -9 0 6.5 6.3
3 -9 1 1.4 1.0
3 -9 2 3.8 2.8
3 -9 3 6.1 5.8
3 -9 4 6.8 6.5
3 -9 5 3.4 3.2
3 -8 -5 9.0 8.9
3 -8 -4 7.5 7.7
3 -8 -3 4.8 4.7
3 -8 -2 13.7 13.9
3 -8 -1 3.2 3.0
3 -8 0 7.3 7.4
3 -8 1 9.3 9.6
3 -8 2 17.2 16.8
3 -8 3 9.4 9.3
3 -8 4 10.4 10.9
3 -8 5 10.9 10.4
3 -8 6 4.8 4.3
3 -7 -6 6.2 5.6
3 -7 -5 4.2 4.2
3 -7 -4 9.7 9.8
3 -7 -3 17.2 17.4
3 -7 -2 26.5 26.9
3 -7 -1 1.2 0.9
3 -7 0 11.1 11.5
3 -7 1 8.6 8.4
3 -7 2 13.8 14.7
3 -7 3 10.0 10.5
3 -7 4 4.4 4.2
3 -7 5 8.0 8.1
3 -7 6 4.8 5.0
3 -6 -5 9.4 9.5
3 -6 -4 15.2 15.0
3 -6 -3 3.6 4.6
3 -6 -2 5.9 6.2
3 -6 -1 0.6 0.6
3 -6 0 14.1 14.3
3 -6 1 6.4 7.5
3 -6 2 8.5 8.0
3 -6 3 19.8 20.3
3 -6 4 19.5 19.2
3 -6 5 11.5 11.1
3 -6 6 1.2 0.4
3 -6 7 0.5 0.3
3 -5 -7 2.7 2.4
3 -5 -6 6.3 6.5
3 -5 -5 4.4 4.5
3 -5 -4 22.0 21.8
3 -5 -3 13.2 12.4
3 -5 -2 16.7 17.0
3 -5 -1 16.5 16.9
3 -5 0 20.7 21.4
3 -5 1 5.5 5.5
3 -5 2 6.9 6.9
3 -5 3 11.7 11.5
3 -5 4 4.3 4.3
3 -5 6 4.7 4.4
3 -4 -8 4.3 4.4
3 -4 -7 0.9 0.9
3 -4 -6 11.9 12.2
3 -4 -5 22.5 22.6
3 -4 -4 1.7 1.3
3 -4 -3 5.1 4.4
3 -4 -2 27.4 26.3
3 -4 -1 19.8 19.7
3 -4 0 7.6 6.1
3 -4 1 44.2 44.0
3 -4 2 32.5 32.6
3 -4 3 19.5 19.9
3 -4 4 10.5 10.7
3 -4 5 5.5 5.7
3 -4 6 1.2 1.1
3 -4 7 7.8 7.5
3 -3 -8 2.6 2.6
3 -3 -7 4.7 4.3
3 -3 -6 10.0 8.9
3 -3 -5 22.4 21.3
3 -3 -4 3.4 3.5
3 -3 -3 22.7 22.1
3 -3 -2 44.1 42.7
3 -3 -1 18.8 19.1
3 -3 0 8.7 8.1
3 -3 1 7.5 8.0
3 -3 2 12.8 13.0
3 -3 3 10.7 10.6
3 -3 4 9.7 9.8
3 -3 5 2.2 1.0
3 -3 6 7.3 7.8
3 -3 7 1.0 0.8
3 -3 8 3.4 3.7
3 -2 -8 2.9 2.8
3 -2 -7 6.6 6.4
3 -2 -6 11.7 11.9
3 -2 -5 2.2 1.2
3 -2 -4 4.1 4.0
3 -2 -3 77.0 77.8
3 -2 -2 38.4 37.1
3 -2 -1 12.9 13.6
3 -2 0 34.3 34.2
3 -2 1 34.3 35.0
3 -2 2 18.6 19.5
3 -2 3 13.7 14.1
3 -2 4 1.6 1.0
3 -2 5 1.0 1.2
3 -2 6 13.0 12.8
3 -2 7 11.0 11.1
3 -2 8 1.9 2.2
3 -1 -8 6.3 5.8
3 -1 -7 5.6 4.8
3 -1 -6 6.5 7.3
3 -1 -5 1.0 1.8
3 -1 -4 20.4 19.5
3 -1 -3 53.8 51.6
3 -1 -2 18.6 18.5
3 -1 -1 3.1 3.0
3 -1 0 2.2 1.9
3 -1 1 43.4 44.3
3 -1 2 4.5 5.1
3 -1 3 3.4 3.0
3 -1 4 4.2 4.0
3 -1 5 7.1 7.4
3 -1 6 3.4 3.5
3 -1 7 7.4 8.1
3 -1 8 8.9 9.5
3 0 -8 5.6 5.5
3 0 -7 9.8 9.6
3 0 -6 10.9 10.4
3 0 -5 15.8 16.3
3 0 -4 48.5 47.6
3 0 -3 21.9 20.6
3 0 -2 15.7 13.4
3 0 -1 3.6 3.8
3 0 0 41.9 41.3
3 0 1 19.6 20.3
3 0 2 9.5 8.5
3 0 3 10.9 11.1
3 0 4 1.6 2.1
3 0 5 1.0 0.7
3 0 6 6.7 6.9
3 0 8 1.2 0.5
3 1 -9 7.7 7.2
3 1 -8 1.2 0.8
3 1 -7 14.2 13.8
3 1 -6 17.8 16.6
3 1 -5 18.5 18.3
3 1 -4 37.4 36.0
3 1 -3 12.2 11.3
3 1 -2 2.4 2.8
3 1 -1 19.0 18.0
3 1 0 88.9 82.1
3 1 1 14.0 13.2
3 1 2 7.0 7.0
3 1 3 1.2 0.9
3 1 4 1.6 1.5
3 1 5 7.3 7.0
3 1 6 3.7 4.3
3 1 7 13.6 13.9
3 2 -9 1.7 1.8
3 2 -8 5.9 6.0
3 2 -7 14.1 13.8
3 2 -6 15.6 15.2
3 2 -5 15.5 14.9
3 2 -4 14.0 13.9
3 2 -3 3.2 3.3
3 2 -2 45.2 44.9
3 2 -1 29.5 29.7
3 2 0 38.4 37.1
3 2 1 10.6 9.1
3 2 2 57.2 58.9
3 2 3 29.5 30.3
3 2 5 4.2 4.3
3 2 6 3.4 3.1
3 2 7 2.5 2.0
3 3 -9 4.4 4.4
3 3 -8 1.7 1.6
3 3 -7 13.2 12.6
3 3 -6 17.4 16.5
3 3 -5 15.9 15.1
3 3 -4 12.9 12.0
3 3 -3 26.5 25.5
3 3 -2 5.9 5.1
3 3 -1 14.2 14.6
3 3 0 19.1 18.8
3 3 1 40.2 41.1
3 3 2 19.5 19.6
3 3 3 11.4 11.3
3 3 4 11.6 13.1
3 3 5 8.2 8.9
3 3 6 9.2 9.2
3 3 7 2.7 3.5
3 4 -8 8.0 7.2
3 4 -7 8.7 8.1
3 4 -6 8.9 8.8
3 4 -5 1.3 1.5
3 4 -4 23.4 23.7
3 4 -3 24.7 25.0
3 4 -2 6.1 6.4
3 4 -1 20.8 21.1
3 4 0 20.3 21.2
3 4 1 35.4 36.9
3 4 2 44.3 47.0
3 4 3 14.2 13.8
3 4 4 11.8 12.2
3 4 5 6.3 5.9
3 4 6 5.5 5.4
3 4 7 3.5 3.7
3 5 -8 3.0 2.3
3 5 -7 4.6 4.3
3 5 -6 4.5 4.9
3 5 -5 4.0 4.3
3 5 -4 27.9 27.1
3 5 -3 5.7 4.8
3 5 -2 23.9 23.6
3 5 -1 8.3 5.3
3 5 0 17.9 17.2
3 5 1 26.7 26.8
3 5 2 7.5 7.5
3 5 3 23.4 25.1
3 5 4 17.5 18.2
3 5 5 3.0 2.9
3 5 6 3.2 4.0
3 6 -8 0.9 0.8
3 6 -7 9.3 9.3
3 6 -6 2.6 3.8
3 6 -5 17.3 16.1
3 6 -4 3.2 3.8
3 6 -3 0.8 0.9
3 6 -2 7.6 7.3
3 6 -1 34.9 34.8
3 6 0 9.0 9.0
3 6 1 9.0 9.0
3 6 2 2.5 2.6
3 6 3 5.6 4.3
3 6 4 7.5 7.4
3 6 5 6.5 7.0
3 6 6 5.3 5.4
3 7 -7 3.6 3.9
3 7 -6 3.6 4.2
3 7 -5 1.4 1.3
3 7 -4 3.1 2.2
3 7 -3 10.7 10.3
3 7 -2 11.2 11.0
3 7 -1 1.6 1.8
3 7 0 8.5 7.9
3 7 1 12.2 12.2
3 7 2 16.6 17.4
3 7 3 4.0 3.9
3 7 4 9.3 9.4
3 7 5 3.2 4.1
3 7 6 5.9 6.5
3 8 -7 0.7 1.4
3 8 -6 4.8 3.9
3 8 -5 7.2 6.7
3 8 -4 1.0 0.5
3 8 -3 0.7 1.4
3 8 -2 15.2 15.2
3 8 -1 8.7 8.4
3 8 0 0.8 1.0
3 8 1 16.4 16.5
3 8 2 19.0 18.9
3 8 3 9.5 9.1
3 8 4 7.6 7.9
3 8 5 2.6 2.6
3 9 -6 3.1 3.0
3 9 -5 1.0 0.5
3 9 -4 16.6 16.8
3 9 -3 25.7 24.8
3 9 -2 11.6 11.0
3 9 -1 6.0 6.0
3 9 0 17.2 17.3
3 9 1 6.1 5.8
3 9 2 1.8 1.9
3 9 3 7.8 7.8
3 9 4 1.1 1.8
3 10 -6 4.1 4.4
3 10 -5 2.9 2.8
3 10 -4 1.3 1.7
3 10 -2 7.9 7.9
3 10 -1 8.7 8.6
3 10 0 12.5 12.4
3 10 1 5.4 5.5
3 10 2 10.8 10.6
3 10 3 2.0 2.3
3 11 -5 5.2 4.8
3 11 -4 11.2 10.8
3 11 -3 11.2 10.6
3 11 -2 4.2 4.4
3 11 -1 7.1 6.6
3 11 0 5.7 5.7
3 11 1 4.9 4.4
3 11 2 2.0 1.4
3 12 -3 3.7 3.5
3 12 -2 1.5 1.8
3 12 -1 2.0 2.4
4 -11 -1 3.5 2.9
4 -11 0 2.4 2.6
4 -11 1 2.9 3.2
4 -11 2 1.4 1.9
4 -10 -3 4.2 4.0
4 -10 -2 4.7 4.0
4 -10 -1 8.5 8.0
4 -10 0 1.7 1.5
4 -10 1 12.2 12.1
4 -10 2 14.3 14.5
4 -10 3 9.2 8.8
4 -10 4 2.4 2.5
4 -9 -4 7.9 7.9
4 -9 -3 5.6 5.3
4 -9 -2 9.5 10.1
4 -9 -1 2.6 2.5
4 -9 0 2.6 3.5
4 -9 1 8.9 9.2
4 -9 2 5.1 5.9
4 -9 3 7.4 8.0
4 -9 4 1.6 1.8
4 -9 5 1.7 1.0
4 -8 -5 4.9 4.8
4 -8 -4 5.5 5.5
4 -8 -3 2.7 3.3
4 -8 -2 10.6 10.6
4 -8 -1 17.5 18.0
4 -8 0 10.8 10.8
4 -8 1 22.6 23.4
4 -8 2 13.7 14.6
4 -8 3 3.4 3.3
4 -8 4 5.8 5.1
4 -8 5 10.7 10.0
4 -7 -6 1.1 1.0
4 -7 -5 7.2 7.1
4 -7 -4 7.9 7.5
4 -7 -3 13.0 13.0
4 -7 -2 9.3 9.5
4 -7 -1 6.4 6.4
4 -7 0 7.1 6.7
4 -7 2 7.9 9.0
4 -7 3 6.2 6.6
4 -7 4 0.6 0.6
4 -7 6 3.9 3.6
4 -6 -6 6.0 5.7
4 -6 -5 11.3 10.8
4 -6 -4 3.9 3.2
4 -6 -3 27.3 27.9
4 -6 -2 35.3 36.1
4 -6 -1 21.6 22.0
4 -6 0 17.6 17.6
4 -6 1 1.2 0.9
4 -6 2 13.2 13.1
4 -6 3 10.6 10.4
4 -6 4 17.0 16.4
4 -6 5 15.7 16.0
4 -5 -6 6.9 7.6
4 -5 -5 6.5 6.0
4 -5 -4 1.2 1.2
4 -5 -3 12.5 12.3
4 -5 -2 1.6 0.9
4 -5 -1 15.2 16.0
4 -5 0 3.6 3.7
4 -5 1 1.4 0.8
4 -5 2 5.8 6.6
4 -5 3 4.8 5.4
4 -5 4 0.8 0.6
4 -5 5 8.4 8.5
4 -5 6 11.9 11.4
4 -5 7 10.8 10.5
4 -4 -7 5.7 5.2
4 -4 -6 18.6 17.5
4 -4 -5 5.0 4.6
4 -4 -4 3.5 3.5
4 -4 -3 22.1 21.4
4 -4 -2 35.9 36.1
4 -4 -1 4.6 4.0
4 -4 0 22.9 22.9
4 -4 1 36.6 36.6
4 -4 2 13.2 12.5
4 -4 3 1.9 0.9
4 -4 4 6.4 6.8
4 -4 5 5.8 6.6
4 -4 6 1.7 0.6
4 -4 7 10.1 9.9
4 -3 -8 4.1 4.3
4 -3 -7 1.9 2.5
4 -3 -6 5.6 5.0
4 -3 -5 2.3 3.0
4 -3 -4 9.2 9.5
4 -3 -3 9.0 8.5
4 -3 -2 10.0 9.2
4 -3 -1 7.7 7.5
4 -3 0 5.0 4.5
4 -3 1 5.1 3.6
4 -3 2 11.7 10.7
4 -3 4 10.2 10.8
4 -3 5 20.6 20.3
4 -3 6 12.9 12.8
4 -2 -8 10.6 10.5
4 -2 -7 9.9 9.5
4 -2 -6 2.6 2.2
4 -2 -5 10.4 9.9
4 -2 -4 17.6 17.4
4 -2 -3 12.1 13.1
4 -2 -2 1.1 1.0
4 -2 -1 23.7 23.1
4 -2 0 31.4 31.5
4 -2 1 18.4 18.8
4 -2 2 42.3 40.8
4 -2 3 17.4 17.2
4 -2 4 3.7 2.9
4 -2 5 2.3 1.7
4 -2 6 9.1 9.6
4 -2 7 10.1 10.6
4 -1 -8 14.1 14.0
4 -1 -7 8.2 8.1
4 -1 -6 4.6 4.9
4 -1 -5 0.9 1.0
4 -1 -4 7.9 7.7
4 -1 -3 2.8 2.8
4 -1 -2 29.4 26.5
4 -1 -1 10.7 10.7
4 -1 0 13.8 14.0
4 -1 1 38.8 37.7
4 -1 2 3.1 3.4
4 -1 3 18.1 18.9
4 -1 4 12.6 11.8
4 -1 5 1.8 1.8
4 -1 6 6.6 7.1
4 -1 7 11.6 11.7
4 0 -8 2.8 2.5
4 0 -7 3.5 3.5
4 0 -6 45.6 46.1
4 0 -5 37.7 36.7
4 0 -4 7.2 7.1
4 0 -3 13.9 13.1
4 0 -2 9.3 10.1
4 0 -1 10.2 10.7
4 0 0 9.9 9.0
4 0 1 16.1 14.0
4 0 2 11.1 9.3
4 0 3 14.4 14.2
4 0 4 5.0 4.2
4 0 5 7.2 7.5
4 0 6 4.7 5.8
4 0 7 3.0 3.2
4 1 -8 9.8 9.6
4 1 -7 9.2 9.3
4 1 -6 14.0 13.9
4 1 -5 1.8 2.3
4 1 -4 9.2 9.0
4 1 -3 4.2 3.7
4 1 -2 24.1 23.4
4 1 -1 27.6 25.6
4 1 0 15.3 14.4
4 1 1 32.4 31.0
4 1 2 15.8 16.3
4 1 3 3.0 2.0
4 1 4 1.8 1.0
4 1 5 14.8 15.7
4 1 6 14.1 14.1
4 1 7 11.3 11.0
4 2 -8 6.3 5.9
4 2 -7 31.9 32.3
4 2 -6 31.9 31.0
4 2 -5 2.7 2.5
4 2 -4 21.9 21.3
4 2 -3 23.6 23.6
4 2 -2 9.8 10.1
4 2 -1 8.6 7.9
4 2 0 33.4 31.5
4 2 1 48.0 44.5
4 2 2 16.7 15.6
4 2 3 17.3 16.2
4 2 4 3.5 4.3
4 2 6 7.0 7.2
4 2 7 2.9 3.3
4 3 -8 5.6 5.5
4 3 -7 8.2 8.1
4 3 -6 3.7 3.6
4 3 -5 16.4 16.0
4 3 -4 10.1 10.1
4 3 -3 14.9 13.0
4 3 -2 5.8 6.2
4 3 -1 7.7 5.6
4 3 0 49.7 51.0
4 3 1 14.3 13.3
4 3 2 4.1 3.3
4 3 3 5.6 5.2
4 3 4 18.7 19.4
4 3 5 9.7 9.5
4 3 6 2.9 1.9
4 3 7 5.4 5.4
4 4 -8 10.1 9.2
4 4 -7 3.8 4.0
4 4 -6 2.3 2.2
4 4 -5 25.7 25.0
4 4 -4 22.7 22.3
4 4 -3 8.2 8.1
4 4 -2 20.5 19.7
4 4 -1 1.0 1.8
4 4 0 4.0 4.0
4 4 1 1.3 0.9
4 4 2 13.0 12.7
4 4 3 1.8 1.5
4 4 4 5.1 4.9
4 4 5 2.4 0.9
4 4 6 1.0 1.0
4 5 -8 1.1 1.0
4 5 -7 2.7 3.2
4 5 -6 18.8 19.0
4 5 -5 2.4 2.7
4 5 -4 5.3 4.1
4 5 -3 18.6 17.6
4 5 -2 34.7 33.3
4 5 -1 27.9 28.7
4 5 0 27.1 27.0
4 5 1 0.9 0.3
4 5 2 4.1 4.8
4 5 3 23.3 24.3
4 5 4 7.2 7.0
4 5 5 1.9 0.3
4 5 6 0.9 1.2
4 6 -8 3.2 3.2
4 6 -7 5.8 5.3
4 6 -6 15.6 15.7
4 6 -5 2.6 2.8
4 6 -4 10.2 10.5
4 6 -3 3.5 3.0
4 6 -2 15.2 15.8
4 6 -1 12.4 12.3
4 6 0 27.3 27.5
4 6 1 1.5 1.3
4 6 2 7.1 7.9
4 6 3 3.7 4.2
4 6 4 1.9 1.5
4 6 5 6.2 6.4
4 6 6 4.7 4.5
4 7 -8 3.5 2.9
4 7 -7 12.7 13.4
4 7 -6 4.6 5.2
4 7 -5 12.1 12.2
4 7 -4 10.9 10.4
4 7 -3 23.0 22.6
4 7 -2 18.5 18.3
4 7 -1 10.7 10.1
4 7 0 8.0 8.4
4 7 1 10.0 10.8
4 7 2 11.8 11.7
4 7 3 7.9 7.8
4 7 4 5.9 5.6
4 8 -7 5.1 5.4
4 8 -6 1.7 2.1
4 8 -5 5.4 6.4
4 8 -4 8.2 8.2
4 8 -3 9.1 9.1
4 8 -2 3.9 4.0
4 8 -1 17.5 17.6
4 8 0 6.0 6.2
4 8 1 3.9 4.2
4 8 2 4.4 4.4
4 8 3 6.5 7.0
4 8 4 7.3 7.5
4 8 5 3.5 3.3
4 9 -7 4.5 4.4
4 9 -6 1.8 2.5
4 9 -5 3.4 2.6
4 9 -4 13.3 13.2
4 9 -3 16.1 16.2
4 9 -2 1.3 0.7
4 9 -1 21.2 21.1
4 9 0 9.5 9.2
4 9 2 2.8 2.5
4 9 4 6.5 6.9
4 10 -6 1.9 3.0
4 10 -5 1.5 2.0
4 10 -4 7.0 6.9
4 10 -3 2.3 2.2
4 10 -2 9.7 9.5
4 10 -1 7.1 7.0
4 10 0 6.9 6.6
4 10 1 3.1 2.7
4 10 2 5.5 5.6
4 10 3 3.3 2.9
4 11 -5 6.8 6.3
4 11 -4 8.7 9.1
4 11 -3 2.2 1.4
4 11 -2 16.0 15.7
4 11 -1 9.8 9.3
4 11 0 6.7 6.3
4 11 1 1.6 1.6
4 11 2 2.0 1.9
4 12 -3 5.8 5.5
4 12 -2 2.8 2.6
4 12 -1 4.0 4.4
5 -10 -1 3.1 2.7
5 -10 0 4.4 4.2
5 -10 1 3.2 2.8
5 -10 2 6.6 6.7
5 -9 -4 1.1 1.2
5 -9 -2 0.8 0.5
5 -9 -1 9.3 9.3
5 -9 0 7.3 7.6
5 -9 1 2.5 2.1
5 -9 2 7.2 7.9
5 -9 3 6.1 5.9
5 -9 4 3.4 2.7
5 -8 -5 11.2 11.0
5 -8 -4 13.5 13.4
5 -8 -3 6.5 6.6
5 -8 -2 2.8 3.0
5 -8 -1 11.6 11.6
5 -8 0 7.8 7.9
5 -8 1 9.2 9.7
5 -8 2 3.5 3.2
5 -8 3 2.3 2.4
5 -8 4 2.6 2.1
5 -8 5 5.9 6.0
5 -7 -6 1.4 1.4
5 -7 -5 4.0 3.7
5 -7 -4 3.5 3.5
5 -7 -3 3.2 3.0
5 -7 -2 13.1 12.9
5 -7 -1 27.9 28.6
5 -7 0 1.2 1.3
5 -7 1 10.9 11.5
5 -7 2 11.3 10.9
5 -7 3 8.5 8.2
5 -7 4 1.3 1.4
5 -7 5 8.0 8.0
5 -6 -6 6.8 6.7
5 -6 -5 6.6 6.3
5 -6 -4 8.4 8.5
5 -6 -3 4.0 4.3
5 -6 -2 17.9 17.9
5 -6 -1 10.1 10.2
5 -6 0 1.2 1.3
5 -6 1 2.0 1.7
5 -6 2 3.1 2.6
5 -6 3 1.2 1.1
5 -6 4 8.3 8.4
5 -6 5 7.2 7.3
5 -6 6 2.8 3.0
5 -5 -7 1.9 2.1
5 -5 -6 5.3 5.3
5 -5 -5 4.7 5.0
5 -5 -4 6.6 6.1
5 -5 -3 18.1 17.9
5 -5 -2 15.9 16.1
5 -5 -1 8.2 7.8
5 -5 0 19.2 18.2
5 -5 1 13.3 13.4
5 -5 2 6.1 6.1
5 -5 3 3.6 4.1
5 -5 4 9.9 8.9
5 -5 6 4.2 3.8
5 -4 -7 7.6 7.5
5 -4 -6 3.3 3.5
5 -4 -5 20.4 20.4
5 -4 -4 5.3 5.0
5 -4 -3 20.5 20.4
5 -4 -2 12.1 11.7
5 -4 -1 6.1 6.0
5 -4 0 17.4 17.5
5 -4 1 14.3 13.7
5 -4 2 11.9 11.1
5 -4 3 10.5 11.0
5 -4 4 13.5 13.6
5 -4 5 7.5 7.8
5 -4 6 8.3 8.6
5 -3 -8 3.5 3.6
5 -3 -7 2.0 1.6
5 -3 -6 1.4 0.9
5 -3 -5 19.4 19.6
5 -3 -4 20.9 20.6
5 -3 -3 9.0 8.0
5 -3 -2 19.1 19.0
5 -3 -1 39.7 39.5
5 -3 0 8.0 9.2
5 -3 1 14.2 13.4
5 -3 2 1.0 1.4
5 -3 3 7.5 7.2
5 -3 4 12.6 12.1
5 -3 5 13.7 14.0
5 -3 6 3.0 2.2
5 -3 7 6.2 5.5
5 -2 -8 7.7 7.4
5 -2 -7 4.2 4.0
5 -2 -6 9.9 9.8
5 -2 -5 12.4 11.9
5 -2 -4 3.8 3.3
5 -2 -3 22.3 21.2
5 -2 -2 25.5 24.3
5 -2 -1 13.4 13.8
5 -2 0 11.4 11.3
5 -2 1 2.6 3.1
5 -2 2 10.7 11.0
5 -2 3 12.1 11.6
5 -2 4 2.6 2.3
5 -2 5 5.4 6.6
5 -2 6 9.3 9.3
5 -2 7 6.2 6.3
5 -1 -8 5.0 4.9
5 -1 -7 8.7 8.7
5 -1 -6 11.6 11.1
5 -1 -5 9.2 2.3
5 -1 -4 3.5 2.9
5 -1 -3 20.3 19.9
5 -1 -2 49.3 48.5
5 -1 -1 22.8 22.7
5 -1 0 16.7 16.0
5 -1 1 6.4 7.1
5 -1 2 24.6 23.9
5 -1 3 7.9 7.5
5 -1 4 14.2 13.5
5 -1 5 1.8 1.9
5 -1 6 8.9 8.3
5 -1 7 7.7 7.1
5 0 -8 2.3 1.8
5 0 -7 10.0 10.2
5 0 -6 4.1 3.5
5 0 -5 2.3 1.9
5 0 -4 22.3 21.7
5 0 -3 33.9 32.0
5 0 -2 23.1 20.6
5 0 -1 19.4 18.1
5 0 0 16.2 15.1
5 0 1 15.7 15.1
5 0 2 1.2 1.0
5 0 4 6.9 8.1
5 0 5 8.2 8.3
5 0 6 1.0 0.7
5 1 -8 13.9 14.1
5 1 -7 4.9 5.6
5 1 -6 23.3 23.8
5 1 -5 25.1 24.8
5 1 -4 12.9 13.2
5 1 -3 30.4 29.4
5 1 -2 17.0 16.6
5 1 -1 20.5 19.5
5 1 0 10.5 9.6
5 1 1 58.3 56.5
5 1 2 0.8 1.0
5 1 3 6.0 5.1
5 1 4 10.0 9.8
5 1 5 13.0 13.1
5 1 6 2.8 2.7
5 1 7 2.4 2.4
5 2 -8 12.4 12.2
5 2 -7 1.3 1.1
5 2 -6 7.3 7.1
5 2 -5 21.0 21.4
5 2 -4 2.2 2.0
5 2 -3 10.9 11.3
5 2 -2 20.2 19.2
5 2 -1 16.4 15.8
5 2 0 13.2 12.5
5 2 1 21.9 20.3
5 2 2 2.6 2.2
5 2 3 26.3 26.1
5 2 4 9.0 8.4
5 2 5 6.3 7.3
5 2 6 6.3 6.7
5 3 -8 1.9 1.6
5 3 -7 14.5 14.8
5 3 -6 32.8 32.6
5 3 -5 24.1 23.7
5 3 -4 11.1 11.3
5 3 -3 1.2 0.6
5 3 -2 9.7 9.4
5 3 -1 16.2 16.4
5 3 0 31.0 29.2
5 3 1 23.2 21.3
5 3 2 8.0 7.7
5 3 3 11.4 10.2
5 3 4 17.0 17.1
5 3 5 5.2 5.4
5 3 6 2.4 2.0
5 4 -7 2.7 2.8
5 4 -6 12.2 12.0
5 4 -5 9.8 10.3
5 4 -4 5.0 4.9
5 4 -3 11.0 11.7
5 4 -2 21.3 21.2
5 4 -1 6.2 6.2
5 4 0 20.7 20.2
5 4 1 14.9 15.4
5 4 2 28.6 28.0
5 4 3 20.9 19.8
5 4 4 1.8 0.4
5 4 5 1.8 1.9
5 4 6 4.9 5.0
5 5 -8 1.0 0.7
5 5 -7 12.6 12.2
5 5 -6 11.6 11.7
5 5 -5 5.0 5.0
5 5 -4 2.7 2.4
5 5 -3 38.2 38.3
5 5 -2 13.2 13.9
5 5 -1 2.0 1.6
5 5 0 5.1 5.1
5 5 1 3.3 3.2
5 5 2 1.8 2.0
5 5 3 8.8 8.2
5 5 4 13.4 14.3
5 5 5 1.1 2.2
5 5 6 2.1 1.7
5 6 -8 1.2 1.2
5 6 -7 6.9 6.8
5 6 -6 4.8 4.0
5 6 -4 11.7 12.1
5 6 -3 2.1 2.1
5 6 -2 6.0 5.9
5 6 -1 13.4 13.8
5 6 0 21.9 22.4
5 6 1 9.1 9.1
5 6 2 10.2 10.0
5 6 3 7.3 7.1
5 6 4 1.9 1.7
5 6 5 3.6 3.4
5 7 -7 1.9 1.9
5 7 -6 3.2 3.5
5 7 -5 4.9 4.3
5 7 -4 14.5 14.5
5 7 -3 14.6 15.2
5 7 -2 5.1 4.8
5 7 -1 16.4 16.4
5 7 0 10.6 10.7
5 7 1 1.2 0.7
5 7 2 3.7 3.4
5 7 3 10.6 11.0
5 7 4 1.1 1.4
5 7 5 1.8 2.3
5 8 -7 1.1 0.9
5 8 -6 1.1 1.3
5 8 -5 2.1 1.6
5 8 -4 3.2 2.6
5 8 -3 14.3 13.5
5 8 -2 17.0 17.1
5 8 -1 15.4 15.5
5 8 2 5.5 6.3
5 8 3 9.0 9.1
5 8 4 8.5 7.9
5 9 -6 4.5 4.5
5 9 -5 0.7 0.7
5 9 -4 7.5 7.6
5 9 -3 10.9 11.4
5 9 -2 4.2 4.5
5 9 -1 8.2 8.4
5 9 1 7.2 7.3
5 9 3 1.1 1.1
5 10 -6 0.8 0.4
5 10 -5 0.7 0.3
5 10 -4 9.6 9.7
5 10 -3 6.6 6.6
5 10 0 0.9 1.2
5 10 1 10.1 10.1
5 10 2 4.8 5.1
5 11 -4 3.6 4.2
5 11 -3 1.8 2.2
5 11 -2 2.3 2.0
5 11 -1 2.9 3.0
5 11 0 0.8 0.2
5 11 1 0.6 0.4
6 -10 0 3.8 4.0
6 -9 -3 3.6 3.5
6 -9 -2 11.0 10.7
6 -9 -1 4.7 3.9
6 -9 0 6.8 6.6
6 -9 1 6.2 5.9
6 -9 2 3.5 3.1
6 -9 3 2.2 0.8
6 -8 -4 0.7 0.6
6 -8 -3 2.9 3.0
6 -8 -2 1.8 2.2
6 -8 -1 4.6 4.9
6 -8 0 7.8 8.1
6 -8 1 3.9 3.6
6 -8 2 9.0 8.6
6 -8 3 5.1 5.0
6 -8 4 2.3 1.9
6 -7 -5 2.8 3.1
6 -7 -4 12.7 12.6
6 -7 -3 16.7 16.8
6 -7 -2 1.9 2.3
6 -7 -1 7.6 7.6
6 -7 0 15.3 15.2
6 -7 1 4.1 3.8
6 -7 2 1.2 0.4
6 -7 3 1.1 0.8
6 -7 4 3.6 2.9
6 -6 -6 1.1 1.0
6 -6 -5 1.5 1.3
6 -6 -4 3.3 3.0
6 -6 -3 5.4 5.8
6 -6 -2 31.7 31.9
6 -6 -1 21.0 20.8
6 -6 0 9.9 9.9
6 -6 1 7.0 7.1
6 -6 2 5.1 5.4
6 -6 3 0.8 0.7
6 -6 4 4.1 3.8
6 -6 5 9.2 8.6
6 -5 -6 4.9 4.7
6 -5 -5 5.6 5.2
6 -5 -4 22.0 22.1
6 -5 -3 1.5 1.2
6 -5 -2 23.8 24.0
6 -5 -1 27.2 27.3
6 -5 0 24.3 24.6
6 -5 1 1.5 1.2
6 -5 2 3.7 3.1
6 -5 3 0.8 1.9
6 -5 4 5.1 3.6
6 -5 5 4.7 4.7
6 -4 -6 2.8 3.3
6 -4 -5 5.6 5.6
6 -4 -4 2.1 2.2
6 -4 -3 15.0 15.0
6 -4 -2 23.4 22.9
6 -4 -1 17.2 17.5
6 -4 0 4.9 4.7
6 -4 1 3.8 3.3
6 -4 2 12.2 12.4
6 -4 3 11.7 11.6
6 -4 4 11.4 10.9
6 -4 5 4.4 4.3
6 -3 -7 7.8 7.7
6 -3 -6 4.2 3.5
6 -3 -5 8.3 8.5
6 -3 -4 9.0 9.3
6 -3 -3 14.2 14.2
6 -3 -2 32.0 32.7
6 -3 -1 22.9 23.0
6 -3 0 6.1 5.0
6 -3 1 17.1 16.1
6 -3 2 1.6 1.0
6 -3 3 8.6 7.8
6 -3 4 7.0 7.3
6 -3 5 6.0 7.0
6 -3 6 6.4 6.0
6 -2 -8 2.0 1.8
6 -2 -7 2.5 2.4
6 -2 -6 2.2 2.2
6 -2 -5 7.3 7.6
6 -2 -4 6.9 6.8
6 -2 -3 4.2 4.2
6 -2 -2 6.6 6.4
6 -2 -1 6.2 5.8
6 -2 0 13.5 13.6
6 -2 1 20.8 20.9
6 -2 2 19.8 18.1
6 -2 3 6.4 6.4
6 -2 4 8.8 8.8
6 -2 5 8.0 7.9
6 -2 6 4.9 3.9
6 -1 -8 14.2 14.5
6 -1 -7 19.0 18.8
6 -1 -6 4.2 4.1
6 -1 -5 10.8 10.9
6 -1 -4 11.0 11.1
6 -1 -3 17.6 17.4
6 -1 -1 19.1 17.5
6 -1 0 17.3 16.7
6 -1 1 11.5 10.5
6 -1 2 22.8 22.1
6 -1 3 7.1 7.0
6 -1 4 11.3 11.6
6 -1 6 0.7 0.8
6 0 -8 1.5 1.4
6 0 -7 4.0 4.0
6 0 -6 7.6 8.0
6 0 -5 15.4 15.2
6 0 -4 9.6 9.2
6 0 -3 7.8 8.1
6 0 -2 1.4 2.1
6 0 -1 15.1 14.7
6 0 0 22.1 21.5
6 0 1 1.9 1.1
6 0 2 11.1 11.2
6 0 3 21.5 20.8
6 0 4 22.9 22.2
6 0 5 1.5 0.5
6 0 6 3.3 2.6
6 1 -8 14.4 14.3
6 1 -7 3.7 3.4
6 1 -6 12.1 12.1
6 1 -5 15.8 15.7
6 1 -3 4.0 4.3
6 1 -2 7.5 7.3
6 1 -1 4.2 3.5
6 1 0 12.1 11.3
6 1 1 24.7 23.9
6 1 2 18.8 18.4
6 1 3 1.5 2.0
6 1 4 11.6 11.9
6 1 5 3.0 3.4
6 1 6 6.6 6.7
6 2 -8 3.9 3.8
6 2 -7 1.6 1.2
6 2 -6 20.1 20.6
6 2 -5 24.9 25.0
6 2 -4 15.1 15.0
6 2 -3 2.5 3.2
6 2 -2 19.0 19.5
6 2 -1 22.7 22.2
6 2 0 9.3 9.3
6 2 1 2.9 2.5
6 2 2 13.5 12.5
6 2 3 14.5 13.4
6 2 4 8.7 9.1
6 2 5 3.3 3.6
6 2 6 4.1 3.6
6 3 -8 2.5 1.8
6 3 -7 10.6 11.0
6 3 -6 12.0 11.9
6 3 -5 1.1 1.2
6 3 -4 3.9 4.3
6 3 -2 11.1 10.1
6 3 -1 1.2 0.6
6 3 0 17.8 17.0
6 3 1 22.4 22.1
6 3 2 6.3 5.6
6 3 3 15.2 15.1
6 3 4 1.8 2.5
6 3 5 5.4 5.7
6 3 6 1.3 1.4
6 4 -8 6.4 5.6
6 4 -7 6.5 6.4
6 4 -6 9.2 9.8
6 4 -5 6.8 6.9
6 4 -4 17.3 17.2
6 4 -3 15.5 16.2
6 4 -2 16.0 15.8
6 4 -1 8.4 8.3
6 4 0 8.2 8.5
6 4 1 4.5 3.9
6 4 2 7.7 6.6
6 4 3 15.4 15.8
6 4 4 11.3 11.9
6 4 5 8.3 7.6
6 5 -8 7.5 6.9
6 5 -7 4.0 4.2
6 5 -6 1.0 0.9
6 5 -5 11.8 12.2
6 5 -4 11.9 12.1
6 5 -3 15.4 15.2
6 5 -2 14.7 15.0
6 5 -1 14.7 13.9
6 5 0 4.8 4.9
6 5 1 9.7 9.4
6 5 2 9.7 10.3
6 5 3 3.1 3.5
6 5 4 8.8 9.0
6 5 5 1.9 1.8
6 6 -7 1.9 2.2
6 6 -6 3.6 3.2
6 6 -5 23.3 23.7
6 6 -4 9.2 9.4
6 6 -3 12.8 13.2
6 6 -2 6.9 7.3
6 6 -1 17.2 18.3
6 6 0 8.0 7.9
6 6 1 15.5 15.0
6 6 2 4.8 5.4
6 6 3 7.5 8.0
6 6 4 8.6 8.5
6 6 5 2.1 1.7
6 7 -7 1.2 1.3
6 7 -6 8.7 9.6
6 7 -5 4.5 4.2
6 7 -4 3.8 3.7
6 7 -3 18.6 19.1
6 7 -2 7.7 7.3
6 7 -1 2.3 1.7
6 7 0 9.1 9.2
6 7 1 1.1 1.7
6 7 2 5.4 5.8
6 7 3 7.0 7.3
6 7 4 3.5 3.6
6 8 -7 5.4 5.0
6 8 -6 9.2 9.6
6 8 -5 8.7 9.2
6 8 -4 2.8 3.5
6 8 -3 19.4 19.3
6 8 -2 15.8 16.1
6 8 -1 4.9 4.8
6 8 0 10.2 10.4
6 8 1 2.7 3.5
6 8 2 3.8 4.0
6 8 3 2.2 1.7
6 9 -6 1.7 2.2
6 9 -5 0.9 0.3
6 9 -4 2.6 2.7
6 9 -3 4.8 5.0
6 9 -2 0.7 0.3
6 9 0 6.6 6.8
6 9 1 2.6 2.6
6 9 2 2.5 2.3
6 9 3 1.7 1.5
6 10 -5 1.8 0.6
6 10 -4 10.8 11.0
6 10 -3 11.1 11.0
6 10 -2 0.8 0.6
6 10 -1 2.9 3.2
6 10 0 7.6 7.5
6 10 1 5.3 5.0
6 11 -3 4.2 4.7
6 11 -2 2.5 2.2
6 11 -1 8.0 8.1
6 11 0 4.8 4.8
7 -9 -1 1.5 1.5
7 -9 0 4.2 3.9
7 -9 1 5.9 5.4
7 -8 -3 10.6 10.4
7 -8 -2 2.7 3.0
7 -8 -1 8.0 7.9
7 -8 0 6.2 6.0
7 -8 1 4.9 4.3
7 -8 2 4.0 4.2
7 -7 -4 8.7 8.9
7 -7 -3 7.0 6.8
7 -7 -2 6.0 6.3
7 -7 -1 6.5 7.1
7 -7 0 4.9 5.4
7 -7 2 3.8 4.2
7 -7 3 3.4 3.8
7 -6 -5 11.7 11.8
7 -6 -4 8.9 9.4
7 -6 -3 4.1 4.1
7 -6 -2 10.6 10.8
7 -6 -1 11.6 11.3
7 -6 0 1.9 1.6
7 -6 1 2.4 2.6
7 -6 2 2.0 1.1
7 -6 3 5.3 4.4
7 -6 4 3.9 3.8
7 -5 -6 8.6 8.6
7 -5 -5 6.9 7.0
7 -5 -4 5.1 5.3
7 -5 -3 10.8 11.1
7 -5 -2 8.5 7.6
7 -5 -1 1.6 1.8
7 -5 0 10.1 10.0
7 -5 1 1.2 0.3
7 -5 2 5.2 5.4
7 -5 3 5.2 5.7
7 -5 4 2.5 2.6
7 -5 5 8.7 8.9
7 -4 -6 10.8 11.3
7 -4 -5 5.0 4.6
7 -4 -4 17.4 17.4
7 -4 -3 17.0 17.1
7 -4 -2 18.6 19.6
7 -4 -1 17.4 17.4
7 -4 0 5.8 5.5
7 -4 1 7.8 6.9
7 -4 2 9.8 8.9
7 -4 3 7.6 7.7
7 -4 4 5.8 6.0
7 -4 5 1.9 2.0
7 -3 -7 6.7 6.3
7 -3 -6 4.3 3.7
7 -3 -5 8.9 8.6
7 -3 -4 1.3 1.0
7 -3 -3 2.6 3.0
7 -3 -2 12.9 13.1
7 -3 -1 5.8 5.3
7 -3 0 7.1 6.9
7 -3 2 1.7 1.5
7 -3 3 1.3 1.6
7 -3 4 8.5 8.5
7 -3 5 5.9 5.6
7 -2 -7 5.8 5.9
7 -2 -6 8.6 8.1
7 -2 -5 12.8 12.8
7 -2 -4 18.0 18.3
7 -2 -3 8.8 9.3
7 -2 -2 21.1 21.1
7 -2 -1 7.7 7.4
7 -2 0 19.9 20.2
7 -2 1 19.9 19.2
7 -2 2 6.9 6.8
7 -2 3 3.2 3.4
7 -2 4 2.8 2.2
7 -2 5 3.3 2.8
7 -1 -7 1.2 0.8
7 -1 -6 7.1 7.4
7 -1 -5 1.6 1.7
7 -1 -4 5.2 4.7
7 -1 -2 5.5 5.6
7 -1 -1 19.8 19.5
7 -1 0 6.6 6.3
7 -1 1 15.0 14.5
7 -1 2 9.7 8.7
7 -1 3 13.7 13.2
7 -1 4 2.7 2.2
7 -1 5 5.4 4.7
7 0 -8 0.6 0.4
7 0 -7 5.7 5.3
7 0 -6 11.3 11.7
7 0 -5 3.8 3.9
7 0 -4 3.7 3.5
7 0 -3 16.2 16.3
7 0 -2 6.3 6.6
7 0 -1 9.5 9.4
7 0 0 9.7 8.6
7 0 1 7.1 7.1
7 0 2 7.7 6.4
7 0 3 17.7 16.3
7 0 4 2.3 2.1
7 0 5 0.6 0.7
7 1 -8 3.0 2.8
7 1 -7 2.0 2.3
7 1 -6 14.5 15.5
7 1 -5 6.9 7.1
7 1 -4 3.5 3.3
7 1 -3 4.4 4.3
7 1 -2 18.2 18.0
7 1 -1 12.3 12.1
7 1 0 4.7 4.8
7 1 1 20.3 19.7
7 1 2 22.6 22.2
7 1 3 9.0 9.6
7 1 4 1.0 1.3
7 1 5 4.1 3.8
7 2 -8 9.2 8.9
7 2 -7 12.3 12.2
7 2 -5 5.7 6.0
7 2 -4 21.3 21.8
7 2 -3 10.2 10.0
7 2 -2 1.6 1.3
7 2 -1 10.5 10.4
7 2 0 9.1 8.9
7 2 1 21.1 20.3
7 2 2 10.1 9.0
7 2 3 2.4 1.6
7 2 4 1.0 0.2
7 2 5 3.6 3.0
7 3 -7 5.3 5.9
7 3 -6 16.1 16.6
7 3 -5 24.3 24.9
7 3 -4 16.9 17.5
7 3 -3 5.7 6.1
7 3 -2 1.8 1.9
7 3 -1 2.7 2.3
7 3 0 16.5 16.0
7 3 1 15.1 14.4
7 3 3 5.9 6.3
7 3 4 6.7 5.9
7 3 5 5.0 5.0
7 4 -8 6.5 6.4
7 4 -7 1.8 2.1
7 4 -6 3.5 3.7
7 4 -5 22.2 23.0
7 4 -4 26.2 27.5
7 4 -3 3.8 3.4
7 4 -2 1.8 2.0
7 4 -1 4.3 4.0
7 4 0 13.4 13.0
7 4 1 5.0 5.5
7 4 2 2.6 2.2
7 4 3 2.3 2.7
7 4 4 1.4 0.6
7 5 -7 1.4 1.9
7 5 -6 18.5 19.1
7 5 -5 16.0 16.6
7 5 -4 3.2 3.3
7 5 -3 10.9 11.2
7 5 -2 21.9 22.6
7 5 -1 5.2 5.3
7 5 0 3.0 2.5
7 5 1 1.6 0.5
7 5 3 1.8 0.8
7 5 4 3.4 2.9
7 6 -7 3.3 2.9
7 6 -6 15.6 15.9
7 6 -5 12.9 14.1
7 6 -4 10.1 10.2
7 6 -3 5.0 5.1
7 6 -2 10.1 10.1
7 6 -1 6.3 6.4
7 6 0 4.8 4.6
7 6 1 3.6 3.9
7 6 2 2.3 2.7
7 6 3 1.9 2.3
7 6 4 3.9 3.8
7 7 -7 1.8 1.8
7 7 -6 3.8 3.9
7 7 -4 16.9 17.3
7 7 -3 14.2 14.7
7 7 -2 5.8 5.5
7 7 -1 1.3 2.1
7 7 0 10.8 11.3
7 7 1 3.4 3.3
7 7 2 1.3 0.5
7 7 3 2.8 1.9
7 8 -6 4.0 4.6
7 8 -5 2.8 3.0
7 8 -4 10.6 10.7
7 8 -3 10.7 10.8
7 8 -2 13.1 12.8
7 8 -1 10.4 10.8
7 8 0 6.4 6.7
7 8 1 1.5 1.4
7 8 3 2.7 2.7
7 9 -5 8.7 9.1
7 9 -4 1.1 1.3
7 9 -3 2.3 2.3
7 9 -2 2.2 2.1
7 9 -1 9.7 10.6
7 9 0 8.0 7.8
7 9 1 3.4 2.4
7 9 2 5.5 5.1
7 10 -4 7.6 8.2
7 10 -3 9.6 10.0
7 10 -2 5.9 6.0
7 10 -1 1.0 1.1
7 10 0 1.7 1.6
8 -8 -1 3.6 3.4
8 -8 0 1.1 1.2
8 -7 -3 6.0 5.5
8 -7 -2 2.9 2.7
8 -7 -1 2.7 3.1
8 -7 1 5.6 5.1
8 -7 2 2.1 2.1
8 -6 -4 7.2 7.4
8 -6 -3 8.9 9.1
8 -6 -2 7.9 7.9
8 -6 -1 12.1 12.0
8 -6 0 2.1 2.5
8 -6 1 1.3 2.0
8 -6 2 0.9 1.1
8 -5 -5 4.4 4.4
8 -5 -4 5.0 4.6
8 -5 -3 10.0 10.1
8 -5 -2 6.1 6.1
8 -5 -1 6.9 7.1
8 -5 0 11.5 11.4
8 -5 1 13.9 13.8
8 -5 2 3.2 3.0
8 -5 3 2.1 2.3
8 -5 4 6.0 5.7
8 -4 -6 3.6 3.5
8 -4 -5 11.6 12.3
8 -4 -4 11.7 12.1
8 -4 -3 9.2 9.7
8 -4 -2 8.6 9.0
8 -4 -1 11.7 11.4
8 -4 0 7.4 8.1
8 -4 2 2.2 2.5
8 -4 3 2.6 3.6
8 -3 -6 1.4 1.7
8 -3 -4 4.9 5.3
8 -3 -3 7.6 7.7
8 -3 -2 5.5 5.4
8 -3 -1 24.8 25.1
8 -3 0 22.7 22.5
8 -3 1 7.2 6.5
8 -3 2 7.6 7.6
8 -3 3 6.4 6.1
8 -3 4 8.5 7.1
8 -2 -7 10.7 11.2
8 -2 -6 8.1 8.6
8 -2 -5 13.7 14.2
8 -2 -4 4.5 5.2
8 -2 -3 10.4 10.5
8 -2 0 4.7 4.7
8 -2 1 9.1 9.3
8 -2 2 8.1 8.6
8 -2 3 1.8 1.9
8 -2 4 3.1 2.9
8 -1 -7 1.9 2.1
8 -1 -6 5.8 5.6
8 -1 -5 6.1 6.2
8 -1 -4 5.2 5.1
8 -1 -3 7.0 6.9
8 -1 -2 25.7 26.2
8 -1 -1 15.2 15.0
8 -1 0 2.4 2.6
8 -1 1 18.4 18.0
8 -1 2 17.0 16.2
8 -1 3 8.6 8.0
8 -1 4 1.9 1.5
8 -1 5 3.1 3.2
8 0 -7 8.0 8.3
8 0 -6 5.5 5.5
8 0 -5 12.8 13.9
8 0 -4 8.4 8.5
8 0 -3 10.3 10.3
8 0 -2 5.9 5.2
8 0 -1 9.2 9.0
8 0 0 11.8 12.3
8 0 1 6.5 6.8
8 0 2 12.6 12.4
8 0 3 7.5 8.1
8 0 4 8.2 8.2
8 0 5 8.6 8.3
8 1 -7 9.8 10.2
8 1 -6 2.3 2.8
8 1 -5 12.2 12.0
8 1 -4 9.7 9.6
8 1 -3 12.0 11.8
8 1 -2 4.9 4.9
8 1 -1 9.1 8.8
8 1 0 21.0 19.8
8 1 1 25.1 24.1
8 1 2 8.2 7.8
8 1 3 1.2 1.2
8 1 4 0.5 0.8
8 1 5 5.3 4.5
8 2 -6 5.6 5.8
8 2 -4 1.0 1.0
8 2 -3 4.0 4.3
8 2 -2 1.1 1.3
8 2 -1 9.7 10.1
8 2 0 6.8 1.2
8 2 1 20.4 21.0
8 2 2 6.5 6.8
8 2 3 7.5 7.4
8 2 4 7.2 7.0
8 3 -7 4.1 4.4
8 3 -6 16.3 17.0
8 3 -5 11.7 12.0
8 3 -4 1.3 1.4
8 3 -3 1.5 1.4
8 3 -2 7.9 8.4
8 3 -1 14.7 14.2
8 3 0 7.7 7.0
8 3 1 11.7 11.6
8 3 3 4.5 4.2
8 3 4 8.1 7.1
8 4 -7 2.4 2.4
8 4 -6 1.9 1.6
8 4 -5 2.5 2.4
8 4 -4 5.4 5.3
8 4 -3 1.1 1.0
8 4 -2 6.1 6.1
8 4 0 2.9 3.1
8 4 1 6.2 6.2
8 4 2 1.8 1.5
8 4 3 5.1 4.4
8 4 4 5.8 6.2
8 5 -7 12.6 12.9
8 5 -6 11.6 12.0
8 5 -5 2.5 2.8
8 5 -4 3.7 3.6
8 5 -3 19.1 20.1
8 5 -2 9.5 9.2
8 5 -1 2.3 1.8
8 5 0 5.2 4.8
8 5 1 3.5 2.7
8 5 2 1.8 2.0
8 5 3 8.3 7.6
8 6 -6 8.2 8.7
8 6 -5 5.5 5.6
8 6 -4 7.8 7.9
8 6 -3 10.3 10.8
8 6 -2 2.4 2.9
8 6 -1 2.1 2.4
8 6 0 4.1 4.2
8 6 2 7.3 7.0
8 6 3 2.8 3.3
8 7 -5 5.3 5.3
8 7 -4 13.8 14.3
8 7 -3 6.6 6.5
8 7 -2 7.2 7.3
8 7 -1 2.2 2.3
8 7 0 5.0 4.6
8 7 1 4.5 5.1
8 7 2 2.4 2.3
8 8 -5 2.9 3.2
8 8 -3 1.5 1.4
8 8 -2 10.1 10.2
8 8 -1 6.0 6.2
8 8 0 2.7 2.6
8 8 1 5.7 6.0
8 9 -1 5.0 5.0
8 9 0 1.5 0.7
9 -6 -3 1.5 1.7
9 -6 -2 4.0 4.4
9 -6 0 3.2 3.3
9 -5 -4 11.0 11.7
9 -5 -3 2.5 2.8
9 -5 -2 12.3 12.4
9 -5 -1 7.8 7.6
9 -5 0 6.5 5.9
9 -5 1 2.9 3.1
9 -5 2 0.9 0.8
9 -4 -5 3.1 3.4
9 -4 -4 3.4 3.4
9 -4 -2 4.8 5.0
9 -4 -1 9.8 10.1
9 -4 0 10.0 10.5
9 -4 1 2.0 2.4
9 -4 2 3.1 3.1
9 -4 3 3.3 2.4
9 -3 -5 5.1 5.8
9 -3 -4 4.8 4.5
9 -3 -3 6.2 6.6
9 -3 -2 11.7 11.7
9 -3 -1 16.6 17.1
9 -3 0 2.5 2.7
9 -3 1 6.1 5.5
9 -3 2 9.7 9.3
9 -3 3 4.0 3.4
9 -2 -6 1.6 2.1
9 -2 -5 2.0 1.6
9 -2 -4 3.1 2.5
9 -2 -3 11.6 11.9
9 -2 -2 9.4 9.6
9 -2 -1 13.8 14.6
9 -2 0 15.1 15.1
9 -2 1 11.9 12.0
9 -2 2 5.8 4.7
9 -1 -6 2.3 2.9
9 -1 -5 7.0 6.9
9 -1 -4 7.0 6.9
9 -1 -3 4.4 4.5
9 -1 -2 13.9 14.2
9 -1 -1 4.8 5.4
9 -1 0 6.3 5.6
9 -1 1 16.2 15.4
9 -1 2 10.7 9.9
9 -1 4 1.3 1.5
9 0 -6 2.6 3.6
9 0 -5 2.6 2.2
9 0 -4 1.7 1.6
9 0 -3 4.2 4.5
9 0 -2 11.5 12.3
9 0 -1 13.0 13.2
9 0 0 14.6 14.6
9 0 1 1.4 0.6
9 0 2 6.2 7.0
9 0 3 4.0 3.9
9 0 4 7.6 6.5
9 1 -6 3.7 3.9
9 1 -5 16.6 17.5
9 1 -4 2.2 2.2
9 1 -3 1.9 1.9
9 1 -2 2.4 1.6
9 1 -1 6.1 5.3
9 1 0 12.5 11.9
9 1 1 1.3 1.2
9 1 2 4.1 4.2
9 1 3 1.4 2.3
9 1 4 5.0 4.8
9 2 -6 2.7 2.5
9 2 -5 3.9 4.1
9 2 -4 1.0 1.0
9 2 -3 12.2 12.7
9 2 -2 7.4 7.7
9 2 -1 2.5 2.2
9 2 0 11.4 12.3
9 2 1 11.1 12.7
9 2 2 13.3 13.4
9 2 3 7.2 6.3
9 3 -6 14.2 15.3
9 3 -5 13.3 13.9
9 3 -4 5.3 5.4
9 3 -3 3.1 2.3
9 3 -2 7.3 7.2
9 3 -1 4.8 4.1
9 3 0 7.9 7.9
9 3 1 2.9 2.9
9 3 3 4.6 4.5
9 4 -5 2.0 2.0
9 4 -4 15.9 17.0
9 4 -3 11.8 12.4
9 4 -2 1.8 2.6
9 4 -1 7.5 8.2
9 4 0 10.5 11.3
9 4 1 10.5 10.7
9 4 2 3.0 2.1
9 4 3 2.0 1.5
9 5 -6 7.3 8.0
9 5 -5 8.6 9.1
9 5 -4 0.8 1.4
9 5 -3 1.0 0.8
9 5 -2 5.3 5.1
9 5 0 3.5 3.2
9 5 1 2.3 2.6
9 5 2 3.6 3.5
9 6 -6 6.0 5.9
9 6 -5 14.2 14.7
9 6 -4 7.3 7.9
9 6 -3 6.4 6.1
9 6 -2 5.8 6.4
9 6 -1 4.9 5.2
9 6 0 2.2 2.1
9 6 1 4.9 4.2
9 6 2 1.0 0.9
9 7 -5 2.5 2.3
9 7 -4 2.1 2.8
9 7 -3 10.0 10.1
9 7 -2 2.6 3.0
9 7 -1 1.3 1.1
9 7 1 5.3 5.4
9 8 -4 3.8 4.1
9 8 -3 7.9 8.1
9 8 -2 7.1 7.4
9 8 -1 6.0 5.9
9 8 0 5.9 6.1
10 -5 -1 7.4 7.5
10 -4 -3 7.2 7.6
10 -4 -2 10.3 10.4
10 -4 -1 4.5 4.5
10 -4 0 2.6 2.2
10 -4 1 2.1 1.2
10 -3 -4 1.6 1.9
10 -3 -2 10.3 10.6
10 -3 -1 1.8 2.2
10 -3 0 7.7 8.1
10 -3 1 3.5 3.8
10 -2 -5 4.0 4.2
10 -2 -4 15.0 15.5
10 -2 -3 7.4 7.8
10 -2 -2 2.6 2.9
10 -2 -1 4.4 4.6
10 -2 0 6.4 5.9
10 -2 1 1.8 2.4
10 -2 2 1.3 1.9
10 -1 -5 4.2 4.4
10 -1 -4 6.4 6.3
10 -1 -3 7.6 7.8
10 -1 -2 6.4 6.5
10 -1 -1 8.6 9.6
10 -1 1 1.9 2.4
10 -1 2 2.1 2.3
10 0 -5 7.5 7.7
10 0 -4 1.8 2.4
10 0 -3 10.7 10.9
10 0 -2 18.4 19.0
10 0 -1 12.9 12.6
10 0 0 2.6 2.2
10 0 1 3.5 3.4
10 1 -5 2.7 2.3
10 1 -4 8.5 8.8
10 1 -3 2.9 3.1
10 1 -2 2.9 3.4
10 1 -1 3.6 3.5
10 1 0 5.6 6.4
10 1 1 4.8 4.9
10 1 2 7.8 7.9
10 2 -6 0.8 0.6
10 2 -5 7.0 7.5
10 2 -4 12.1 12.8
10 2 -3 14.3 14.7
10 2 -2 5.2 4.8
10 2 -1 0.9 1.6
10 2 0 0.9 0.7
10 2 1 5.1 4.3
10 2 2 10.7 11.0
10 3 -5 9.0 9.9
10 3 -4 0.9 0.6
10 3 -3 7.5 7.7
10 3 -2 2.9 3.1
10 3 -1 2.6 3.1
10 3 0 3.3 3.2
10 3 1 4.6 4.2
10 3 2 7.4 7.2
10 4 -5 9.7 10.4
10 4 -4 9.1 9.7
10 4 -3 5.4 5.9
10 4 -2 7.7 8.3
10 4 -1 8.5 8.6
10 4 0 3.7 2.5
10 4 1 5.9 5.9
10 5 -5 1.8 2.0
10 5 -4 8.6 9.3
10 5 -3 4.2 4.4
10 5 -2 6.9 7.7
10 5 -1 1.8 1.9
10 5 0 0.7 0.2
10 5 1 5.1 4.9
10 6 -4 1.2 1.2
10 6 -3 5.2 5.8
10 6 -2 14.2 14.7
10 6 -1 0.8 0.4
10 6 0 2.8 2.5
10 7 -3 8.3 9.3
10 7 -2 2.1 2.3
10 7 -1 1.2 1.0
11 -2 -2 1.1 0.7
11 -2 -1 4.7 4.4
11 -1 -3 8.0 8.3
11 -1 -2 6.2 6.4
11 -1 -1 5.6 5.6
11 0 -4 2.5 3.0
11 0 -3 7.4 7.2
11 0 -2 5.2 5.4
11 0 -1 6.0 6.6
11 0 0 4.2 4.7
11 1 -4 9.7 10.2
11 1 -3 2.2 2.1
11 1 -2 1.4 1.7
11 1 -1 2.6 2.4
11 1 0 3.0 2.9
11 2 -4 11.1 11.7
11 2 -3 4.5 4.5
11 2 -2 2.0 2.3
11 2 -1 1.1 0.5
11 2 0 2.8 3.3
11 3 -4 0.5 0.5
11 3 -3 4.9 5.6
11 3 -2 5.0 4.7
11 3 -1 3.0 2.9
11 3 0 5.9 5.1
11 4 -3 2.1 2.4
11 4 -2 3.4 2.8
11 4 -1 0.9 1.1
