#------------------------------------------------------------------------------
#$Date: 2016-02-18 17:37:37 +0200 (Thu, 18 Feb 2016) $
#$Revision: 176729 $
#$URL: svn://www.crystallography.net/cod/cif/1/51/44/1514479.cif $
#------------------------------------------------------------------------------
#
# This file is available in the Crystallography Open Database (COD),
# http://www.crystallography.net/
#
# All data on this site have been placed in the public domain by the
# contributors.
#
data_1514479
loop_
_publ_author_name
'King, Amanda E.'
'Surendranath, Yogesh'
'Piro, Nicholas A.'
'Bigi, Julian P.'
'Long, Jeffrey R.'
'Chang, Christopher J.'
_publ_section_title
;
 A mechanistic study of proton reduction catalyzed by a pentapyridine
 cobalt complex: evidence for involvement of an anation-based pathway
;
_journal_issue                   4
_journal_name_full               'Chemical Science'
_journal_page_first              1578
_journal_paper_doi               10.1039/c3sc22239j
_journal_volume                  4
_journal_year                    2013
_chemical_formula_sum            'C144 H130 B4 Co4 F40 N30 O24 S8'
_chemical_formula_weight         3960.22
_chemical_name_common            AEK1145Co
_chemical_name_systematic
;
?
;
_space_group_IT_number           9
_symmetry_cell_setting           monoclinic
_symmetry_space_group_name_Hall  'C -2yc'
_symmetry_space_group_name_H-M   'C 1 c 1'
_atom_sites_solution_hydrogens   geom
_atom_sites_solution_primary     direct
_atom_sites_solution_secondary   difmap
_audit_creation_method           SHELXL-97
_cell_angle_alpha                90.00
_cell_angle_beta                 97.47
_cell_angle_gamma                90.00
_cell_formula_units_Z            2
_cell_length_a                   17.791
_cell_length_b                   16.341
_cell_length_c                   27.415
_cell_measurement_reflns_used    9696
_cell_measurement_temperature    373(2)
_cell_measurement_theta_max      25.31
_cell_measurement_theta_min      2.36
_cell_volume                     7902.521
_computing_cell_refinement       'Bruker SAINT'
_computing_data_collection       'Bruker APEX2'
_computing_data_reduction        'Bruker SAINT'
_computing_molecular_graphics    ORTEP-32
_computing_publication_material  WinGX
_computing_structure_refinement  SHELXL-97
_computing_structure_solution    SIR-2004
_diffrn_ambient_temperature      373(2)
_diffrn_detector_area_resol_mean 8.366
_diffrn_measured_fraction_theta_full 0.997
_diffrn_measured_fraction_theta_max 0.996
_diffrn_measurement_device_type  'Bruker APEX-II CCD'
_diffrn_measurement_method       'phi and omega scans'
_diffrn_radiation_monochromator  graphite
_diffrn_radiation_source         'fine-focus sealed tube'
_diffrn_radiation_type           MoK\a
_diffrn_radiation_wavelength     0.71073
_diffrn_reflns_av_R_equivalents  0.0370
_diffrn_reflns_av_sigmaI/netI    0.0438
_diffrn_reflns_limit_h_max       21
_diffrn_reflns_limit_h_min       -21
_diffrn_reflns_limit_k_max       19
_diffrn_reflns_limit_k_min       -19
_diffrn_reflns_limit_l_max       32
_diffrn_reflns_limit_l_min       -33
_diffrn_reflns_number            55077
_diffrn_reflns_theta_full        25.00
_diffrn_reflns_theta_max         25.37
_diffrn_reflns_theta_min         1.50
_exptl_absorpt_coefficient_mu    0.645
_exptl_absorpt_correction_T_max  0.9266
_exptl_absorpt_correction_T_min  0.8818
_exptl_absorpt_correction_type   multi-scan
_exptl_absorpt_process_details   SADABS
_exptl_crystal_colour            orange
_exptl_crystal_density_diffrn    1.664
_exptl_crystal_density_method    'not measured'
_exptl_crystal_description       Prisms
_exptl_crystal_F_000             4024
_exptl_crystal_size_max          0.20
_exptl_crystal_size_mid          0.16
_exptl_crystal_size_min          0.12
_refine_diff_density_max         1.371
_refine_diff_density_min         -1.010
_refine_diff_density_rms         0.115
_refine_ls_abs_structure_details 'Flack H D (1983), Acta Cryst. A39, 876-881'
_refine_ls_abs_structure_Flack   0.007(16)
_refine_ls_extinction_method     none
_refine_ls_goodness_of_fit_ref   1.047
_refine_ls_hydrogen_treatment    mixed
_refine_ls_matrix_type           full
_refine_ls_number_parameters     1175
_refine_ls_number_reflns         13504
_refine_ls_number_restraints     13
_refine_ls_restrained_S_all      1.061
_refine_ls_R_factor_all          0.0761
_refine_ls_R_factor_gt           0.0692
_refine_ls_shift/su_max          0.038
_refine_ls_shift/su_mean         0.001
_refine_ls_structure_factor_coef Fsqd
_refine_ls_weighting_details
'calc w=1/[\s^2^(Fo^2^)+(0.1420P)^2^+18.4489P] where P=(Fo^2^+2Fc^2^)/3'
_refine_ls_weighting_scheme      calc
_refine_ls_wR_factor_gt          0.1880
_refine_ls_wR_factor_ref         0.1975
_reflns_number_gt                12161
_reflns_number_total             13504
_reflns_threshold_expression     >2sigma(I)
_iucr_refine_instructions_details
;
TITL AEK1145Co_0m in Cc
CELL 0.71073 17.7910 16.3410 27.4150 90.000 97.474 90.000
ZERR 2.00 0.0000 0.0000 0.0000 0.000 0.000 0.000
LATT -7
SYMM X, - Y, 1/2 + Z
SFAC C H B N O F S CO
UNIT 288 260 8 60 48 80 16 8
MERG 2
DFIX 1.33 0.02 F9 C63 C63 F10 C63 F11
DFIX 1.33 0.02 F18 C66 C66 F19 C66 F20
DFIX 1.33 0.02 F18A C66A C66A F19A C66A F20A
DFIX 1.46 0.01 C69 C70
DFIX 1.16 0.01 C69 N14
FMAP 2
PLAN 20
SIZE 0.12 0.16 0.20
ACTA 50.00
BOND $H
LIST 4
WPDB 2
L.S. 20
TEMP 100.00
WGHT 0.142000 18.448900
FVAR 0.05637 0.66449
C1 1 0.059414 0.828333 0.921153 11.00000 0.02576 0.02174 =
0.03466 -0.00101 -0.00169 0.00103
C2 1 0.066951 0.749712 0.906079 11.00000 0.04337 0.03102 =
0.04401 0.00457 -0.00518 0.00634
AFIX 43
H2 2 0.055349 0.706751 0.926059 11.00000 -1.20000
AFIX 0
C3 1 0.091613 0.733199 0.861486 11.00000 0.03898 0.02705 =
0.04772 -0.00660 -0.00836 0.01079
AFIX 43
H3 2 0.098004 0.679498 0.851571 11.00000 -1.20000
AFIX 0
C4 1 0.106469 0.797016 0.832177 11.00000 0.02783 0.03413 =
0.03553 -0.01217 -0.00175 0.00300
AFIX 43
H4 2 0.123101 0.787166 0.801930 11.00000 -1.20000
AFIX 0
C5 1 0.096681 0.876796 0.847644 11.00000 0.02729 0.03104 =
0.02806 -0.00424 0.00363 -0.00119
C6 1 0.109826 0.949427 0.815180 11.00000 0.04469 0.02014 =
0.04005 -0.00973 0.01324 -0.00475
C7 1 0.128360 0.919532 0.765896 11.00000 0.07691 0.03084 =
0.03855 -0.01296 0.02237 -0.01397
AFIX 137
H7A 2 0.179177 0.898531 0.769572 11.00000 -1.50000
H7B 2 0.124089 0.964129 0.742907 11.00000 -1.50000
H7C 2 0.093573 0.876965 0.753934 11.00000 -1.50000
AFIX 0
C8 1 -0.038821 1.092447 0.843313 11.00000 0.03799 0.02551 =
0.04112 0.00501 0.00519 -0.00463
AFIX 43
H8 2 -0.049225 1.121431 0.870851 11.00000 -1.20000
AFIX 0
C9 1 -0.082391 1.108724 0.799527 11.00000 0.05076 0.02209 =
0.05642 0.01243 -0.01159 0.00208
AFIX 43
H9 2 -0.121059 1.147366 0.797354 11.00000 -1.20000
AFIX 0
C10 1 -0.066954 1.065944 0.758921 11.00000 0.07167 0.02939 =
0.04803 0.01002 -0.01328 -0.00851
AFIX 43
H10 2 -0.098088 1.070686 0.729063 11.00000 -1.20000
AFIX 0
C11 1 -0.003733 1.015430 0.763520 11.00000 0.09601 0.02767 =
0.02351 0.00092 0.00624 -0.01186
AFIX 43
H11 2 0.010711 0.990095 0.735819 11.00000 -1.20000
AFIX 0
C12 1 0.037595 1.002663 0.808738 11.00000 0.04225 0.02179 =
0.03240 -0.00197 0.00681 -0.00501
C13 1 0.217506 1.080994 0.909695 11.00000 0.03551 0.04352 =
0.04123 -0.01060 0.01291 -0.01319
AFIX 43
H13 2 0.208464 1.106769 0.938611 11.00000 -1.20000
AFIX 0
C14 1 0.284676 1.095122 0.892988 11.00000 0.04888 0.07160 =
0.07323 -0.03327 0.03155 -0.02906
AFIX 43
H14 2 0.321745 1.126991 0.910984 11.00000 -1.20000
AFIX 0
C15 1 0.296855 1.060898 0.848371 11.00000 0.05859 0.10774 =
0.09815 -0.06521 0.05920 -0.04678
AFIX 43
H15 2 0.342591 1.069047 0.836072 11.00000 -1.20000
AFIX 0
C16 1 0.240200 1.014572 0.822447 11.00000 0.06880 0.05143 =
0.06661 -0.02501 0.04529 -0.03357
AFIX 43
H16 2 0.246473 0.993528 0.791717 11.00000 -1.20000
AFIX 0
C17 1 0.174342 0.999744 0.842404 11.00000 0.03934 0.04988 =
0.03794 -0.00960 0.01769 -0.00558
C18 1 0.167240 1.019535 1.008487 11.00000 0.02954 0.04723 =
0.03353 -0.00709 0.00294 -0.00880
AFIX 43
H25 2 0.177967 1.070763 0.996326 11.00000 -1.20000
AFIX 0
C19 1 0.203122 0.996813 1.053784 11.00000 0.04593 0.06814 =
0.04048 -0.00467 -0.00094 -0.01180
AFIX 43
H26 2 0.237796 1.031487 1.071740 11.00000 -1.20000
AFIX 0
C20 1 0.186570 0.921726 1.071898 11.00000 0.06053 0.07140 =
0.03147 0.00938 -0.01164 -0.01216
AFIX 43
H27 2 0.211139 0.904110 1.102090 11.00000 -1.20000
AFIX 0
C21 1 0.134385 0.873289 1.045738 11.00000 0.05441 0.05461 =
0.03845 0.01463 0.01493 0.00162
AFIX 43
H28 2 0.122445 0.822590 1.058091 11.00000 -1.20000
AFIX 0
C22 1 0.098752 0.899492 1.000435 11.00000 0.03183 0.03125 =
0.02703 0.00250 0.00617 0.00313
C23 1 0.035944 0.850200 0.970846 11.00000 0.03230 0.02614 =
0.03199 0.00600 0.00482 0.00362
C24 1 0.019029 0.771894 0.997896 11.00000 0.04977 0.04263 =
0.03598 0.01165 0.00328 -0.01075
AFIX 137
H19A 2 0.064326 0.739585 1.004145 11.00000 -1.50000
H19B 2 -0.019439 0.741137 0.977992 11.00000 -1.50000
H19C 2 0.001577 0.785775 1.028542 11.00000 -1.50000
AFIX 0
C25 1 -0.085488 1.032882 0.940617 11.00000 0.03079 0.03117 =
0.04230 -0.00472 0.00441 0.00169
AFIX 43
H20 2 -0.079019 1.085705 0.929244 11.00000 -1.20000
AFIX 0
C26 1 -0.153723 1.012862 0.955265 11.00000 0.02885 0.03576 =
0.04238 -0.00765 0.00889 0.00106
AFIX 43
H21 2 -0.193076 1.050714 0.952698 11.00000 -1.20000
AFIX 0
C27 1 -0.163446 0.935119 0.974051 11.00000 0.03432 0.05347 =
0.04969 -0.00144 0.01055 -0.01079
AFIX 43
H22 2 -0.209524 0.919331 0.983695 11.00000 -1.20000
AFIX 0
C28 1 -0.102894 0.882369 0.977923 11.00000 0.03542 0.04998 =
0.04185 0.00745 0.01078 -0.00921
AFIX 43
H23 2 -0.107642 0.830494 0.991138 11.00000 -1.20000
AFIX 0
C29 1 -0.034584 0.905303 0.962396 11.00000 0.03312 0.03957 =
0.02574 -0.00394 0.00377 -0.00214
C30 1 0.051458 1.178996 0.951889 11.00000 0.02443 0.04264 =
0.07515 -0.02347 -0.00194 0.00131
C31 1 0.034591 1.259636 0.970925 11.00000 0.03795 0.06456 =
0.15773 -0.07447 -0.00446 0.00886
AFIX 137
H45A 2 0.032571 1.255941 1.005678 11.00000 -1.50000
H45B 2 -0.013417 1.278347 0.954722 11.00000 -1.50000
H45C 2 0.073548 1.297543 0.964867 11.00000 -1.50000
AFIX 0
C32 1 -0.036736 0.633440 1.128264 11.00000 0.02616 0.01930 =
0.02968 0.00144 0.00724 -0.00221
C33 1 -0.079476 0.643284 1.083774 11.00000 0.02706 0.01937 =
0.03545 0.00258 0.00652 -0.00100
AFIX 43
H303 2 -0.107527 0.690928 1.077100 11.00000 -1.20000
AFIX 0
C34 1 -0.081363 0.581947 1.048023 11.00000 0.02638 0.02883 =
0.02524 -0.00266 0.00117 0.00005
AFIX 43
H302 2 -0.109210 0.588621 1.017144 11.00000 -1.20000
AFIX 0
C35 1 -0.040431 0.510855 1.060029 11.00000 0.02720 0.03258 =
0.03048 -0.00393 0.00562 0.00044
AFIX 43
H301 2 -0.041353 0.468195 1.037505 11.00000 -1.20000
AFIX 0
C36 1 0.001810 0.504275 1.106000 11.00000 0.01903 0.02574 =
0.02580 -0.00031 0.00652 -0.00055
C37 1 -0.018473 0.589117 1.285144 11.00000 0.03165 0.02156 =
0.03441 -0.00334 0.00567 -0.00105
AFIX 43
H402 2 0.016357 0.553910 1.302511 11.00000 -1.20000
AFIX 0
C38 1 -0.076105 0.621022 1.309285 11.00000 0.03355 0.03027 =
0.02764 -0.00377 0.01335 -0.00449
AFIX 43
H403 2 -0.079859 0.607504 1.341832 11.00000 -1.20000
AFIX 0
C39 1 -0.127407 0.673288 1.283372 11.00000 0.02717 0.03297 =
0.04436 -0.00935 0.01211 0.00033
AFIX 43
H404 2 -0.169399 0.692165 1.296977 11.00000 -1.20000
AFIX 0
C40 1 -0.115194 0.696654 1.237390 11.00000 0.02446 0.01756 =
0.03884 -0.00265 0.00329 0.00247
AFIX 43
H405 2 -0.147578 0.734679 1.220412 11.00000 -1.20000
AFIX 0
C41 1 -0.055897 0.665277 1.215337 11.00000 0.02982 0.02210 =
0.02254 0.00425 0.00428 0.00197
C42 1 -0.032334 0.699552 1.167590 11.00000 0.02797 0.02303 =
0.02777 0.00175 0.00616 0.00103
C43 1 -0.084285 0.771922 1.149165 11.00000 0.03477 0.01782 =
0.03491 0.00233 0.00549 0.00262
AFIX 137
H40A 2 -0.135952 0.753587 1.143530 11.00000 -1.50000
H40B 2 -0.069617 0.792639 1.119024 11.00000 -1.50000
H40C 2 -0.079572 0.814511 1.173491 11.00000 -1.50000
AFIX 0
C44 1 0.169217 0.694793 1.220004 11.00000 0.02434 0.03870 =
0.03831 -0.00684 0.00348 -0.01184
AFIX 43
H31 2 0.202490 0.657163 1.236572 11.00000 -1.20000
AFIX 0
C45 1 0.192865 0.778048 1.215697 11.00000 0.03064 0.05026 =
0.04131 -0.00517 0.00692 -0.01573
AFIX 43
H32 2 0.240797 0.794547 1.229885 11.00000 -1.20000
AFIX 0
C46 1 0.144793 0.832620 1.190760 11.00000 0.05071 0.02539 =
0.04588 -0.00090 0.01140 -0.01713
AFIX 43
H33 2 0.161172 0.885378 1.185016 11.00000 -1.20000
AFIX 0
C47 1 0.071075 0.809146 1.173907 11.00000 0.04138 0.03220 =
0.03238 0.00152 0.01148 -0.00594
AFIX 43
H34 2 0.036386 0.846965 1.158961 11.00000 -1.20000
AFIX 0
C48 1 0.049345 0.726424 1.179823 11.00000 0.02527 0.01954 =
0.02893 0.00395 0.00476 -0.00091
C49 1 0.221015 0.528778 1.181630 11.00000 0.02356 0.03289 =
0.02643 -0.00106 0.00101 0.00321
AFIX 43
H38 2 0.233421 0.563443 1.208370 11.00000 -1.20000
AFIX 0
C50 1 0.278669 0.499942 1.155797 11.00000 0.02144 0.03880 =
0.04095 0.00282 0.00715 0.00351
AFIX 43
H39 2 0.328505 0.516692 1.164785 11.00000 -1.20000
AFIX 0
C51 1 0.261493 0.447651 1.117743 11.00000 0.02994 0.04108 =
0.03501 0.00275 0.01507 0.01130
AFIX 43
H40 2 0.299037 0.429357 1.099740 11.00000 -1.20000
AFIX 0
C52 1 0.187231 0.421704 1.105940 11.00000 0.03931 0.03285 =
0.02819 0.00085 0.01186 0.01447
AFIX 43
H41 2 0.175145 0.383450 1.081037 11.00000 -1.20000
AFIX 0
C53 1 0.130816 0.452772 1.131266 11.00000 0.02474 0.02252 =
0.03093 0.00249 0.00649 0.00393
C54 1 0.048344 0.428186 1.120600 11.00000 0.02283 0.02491 =
0.02469 0.00066 0.00441 0.00546
C55 1 0.037635 0.364816 1.078457 11.00000 0.03168 0.02560 =
0.02582 -0.00663 0.00421 0.00402
AFIX 137
H37A 2 0.063536 0.315109 1.089047 11.00000 -1.50000
H37B 2 0.058126 0.386207 1.050357 11.00000 -1.50000
H37C 2 -0.015413 0.353750 1.069775 11.00000 -1.50000
AFIX 0
C56 1 0.008421 0.410346 1.249127 11.00000 0.02871 0.02076 =
0.03298 0.00036 0.00415 -0.00572
AFIX 43
H42 2 0.013808 0.443140 1.277090 11.00000 -1.20000
AFIX 0
C57 1 -0.018859 0.333202 1.252831 11.00000 0.03480 0.02596 =
0.03083 0.00417 0.00465 -0.00189
AFIX 43
H43 2 -0.031569 0.314194 1.282669 11.00000 -1.20000
AFIX 0
C58 1 -0.027536 0.283119 1.211601 11.00000 0.03429 0.03127 =
0.03415 0.00174 0.00075 -0.00590
AFIX 43
H44 2 -0.047243 0.230543 1.212745 11.00000 -1.20000
AFIX 0
C59 1 -0.005776 0.314401 1.168863 11.00000 0.03687 0.01705 =
0.03773 -0.00806 0.00280 -0.00232
AFIX 43
H45 2 -0.010489 0.282219 1.140651 11.00000 -1.20000
AFIX 0
C60 1 0.022561 0.391828 1.167310 11.00000 0.02337 0.02230 =
0.02755 -0.00440 0.00397 0.00192
C61 1 0.171372 0.505231 1.294736 11.00000 0.01872 0.03367 =
0.03139 0.00115 0.00703 -0.00073
C62 1 0.221489 0.467402 1.334290 11.00000 0.03146 0.04900 =
0.03069 0.00481 -0.00040 0.00549
AFIX 137
H62A 2 0.241913 0.417802 1.322618 11.00000 -1.50000
H62B 2 0.193601 0.455052 1.361091 11.00000 -1.50000
H62C 2 0.262142 0.504301 1.345354 11.00000 -1.50000
AFIX 0
C64 1 0.112768 0.522881 0.959484 11.00000 0.03785 0.04659 =
0.05053 0.02206 0.00223 0.00603
C65 1 0.480829 0.585966 1.072521 11.00000 0.45291 0.15889 =
0.03380 -0.01736 0.00158 0.19958
C67 1 0.215687 0.689800 1.098951 11.00000 0.09332 0.06738 =
0.12367 0.03020 0.05214 0.02280
C68 1 0.299106 0.718639 1.111894 11.00000 0.08785 0.08737 =
0.14158 0.00887 0.03021 -0.00158
AFIX 137
H68A 2 0.299936 0.775902 1.119769 11.00000 -1.50000
H68B 2 0.326063 0.709578 1.084234 11.00000 -1.50000
H68C 2 0.322867 0.688258 1.139679 11.00000 -1.50000
AFIX 0
C69 1 0.118887 0.740225 1.340128 11.00000 0.17858 0.07688 =
0.05572 -0.02013 0.06726 -0.06580
C70 1 0.088377 0.797981 1.307142 11.00000 0.07472 0.09672 =
0.07983 -0.01627 0.03216 0.02074
AFIX 137
H60A 2 0.097790 0.782855 1.274646 11.00000 -1.50000
H60B 2 0.111243 0.850153 1.315604 11.00000 -1.50000
H60C 2 0.034710 0.801423 1.308052 11.00000 -1.50000
AFIX 0
C71 1 0.192920 0.261320 1.201065 11.00000 0.04211 0.05444 =
0.05314 0.01288 0.01104 0.00976
C72 1 0.186002 0.198472 1.164276 11.00000 0.04556 0.07437 =
0.05214 0.02534 0.00028 0.00117
AFIX 137
H10A 2 0.212614 0.150447 1.177179 11.00000 -1.50000
H10B 2 0.207334 0.217348 1.135890 11.00000 -1.50000
H10C 2 0.133425 0.185531 1.155121 11.00000 -1.50000
AFIX 0
B1 3 -0.258052 0.747487 1.021242 11.00000 0.02404 0.03857 =
0.04622 -0.01061 0.00018 -0.00603
B2 3 -0.184866 0.479268 1.189403 11.00000 0.02131 0.04641 =
0.04204 -0.01772 0.01109 -0.01151
N1 4 0.074930 0.893446 0.891350 11.00000 0.02219 0.02398 =
0.02759 -0.00778 0.00462 -0.00045
N2 4 0.017355 1.038179 0.849385 11.00000 0.03259 0.02324 =
0.03438 -0.00453 0.00756 -0.00825
N3 4 0.162432 1.031413 0.886783 11.00000 0.02781 0.02822 =
0.03776 -0.01033 0.00788 -0.00497
N4 4 0.117697 0.971774 0.980999 11.00000 0.02714 0.03595 =
0.02654 -0.00299 0.00433 0.00312
N5 4 -0.026240 0.979278 0.941817 11.00000 0.02570 0.03131 =
0.02818 -0.00310 0.00570 -0.00163
N6 4 0.061873 1.115634 0.937592 11.00000 0.02563 0.02840 =
0.03912 -0.00342 0.00495 0.00080
N7 4 0.004933 0.566079 1.139861 11.00000 0.01874 0.02795 =
0.02695 -0.00037 0.00823 -0.00523
N8 4 -0.010390 0.606013 1.238874 11.00000 0.02449 0.02466 =
0.02952 -0.00091 0.00631 -0.00005
N9 4 0.099317 0.670211 1.200351 11.00000 0.02694 0.02834 =
0.02498 -0.00088 0.00773 -0.00235
N10 4 0.148279 0.507477 1.168636 11.00000 0.02164 0.02707 =
0.02273 -0.00148 0.00284 0.00082
N11 4 0.028171 0.442061 1.207016 11.00000 0.02692 0.02063 =
0.02688 0.00051 0.00277 0.00517
N12 4 0.132148 0.533344 1.263223 11.00000 0.02561 0.02612 =
0.02760 -0.01043 0.00456 -0.00521
N13 4 0.150280 0.667015 1.090928 11.00000 0.10921 0.07318 =
0.03880 0.01348 0.00631 0.02994
N14 4 0.127755 0.686026 1.369300 11.00000 0.19574
N15 4 0.201715 0.312122 1.230164 11.00000 0.06331 0.04257 =
0.05644 0.01457 0.00090 0.01389
O1 5 0.436251 0.658495 1.292991 11.00000 0.03992 0.03707 =
0.08028 0.00467 0.01432 -0.00928
O2 5 0.313214 0.608682 1.275225 11.00000 0.04519 0.03842 =
0.06303 -0.00629 -0.02180 -0.00811
O3 5 0.382607 0.583623 1.350823 11.00000 0.07157 0.14102 =
0.03875 0.03167 -0.00994 -0.02977
O4 5 -0.019251 0.583762 0.937616 11.00000 0.03297 0.03873 =
0.05538 0.00032 0.00695 0.00265
O5 5 0.047791 0.532641 0.872039 11.00000 0.05832 0.05479 =
0.04099 -0.01241 0.00602 0.00351
O6 5 -0.003234 0.436576 0.927866 11.00000 0.05483 0.04079 =
0.07741 0.00074 0.00586 -0.00270
O7 5 0.568556 0.526619 1.145001 11.00000 0.05658 0.10236 =
0.06141 0.01089 -0.01044 0.01044
O8 5 0.450295 0.599017 1.161125 11.00000 0.06563 0.06200 =
0.03935 -0.00652 0.01377 0.00325
O9 5 0.449196 0.464907 1.124521 11.00000 0.04646 0.04592 =
0.17948 -0.02048 0.00506 0.00067
O10 5 -0.108878 0.763376 1.400950 11.00000 0.04963 0.04918 =
0.06571 0.00838 0.01349 -0.01296
O11 5 -0.235061 0.808428 1.396670 11.00000 0.06094 0.15069 =
0.30583 0.13700 -0.03122 -0.01053
O12 5 -0.222433 0.692551 1.370284 11.00000 0.06409 0.48965 =
0.09119 -0.14768 0.02317 -0.09990
F1 6 -0.208905 0.788634 1.055470 11.00000 0.04035 0.03614 =
0.05655 -0.02298 -0.00722 0.00200
F2 6 -0.220166 0.691067 0.997953 11.00000 0.07164 0.09947 =
0.07700 -0.05734 -0.01958 0.03353
F3 6 -0.293123 0.801638 0.987130 11.00000 0.04800 0.08178 =
0.10422 0.05591 -0.02736 -0.01595
F4 6 -0.313600 0.710951 1.043061 11.00000 0.07556 0.08616 =
0.07276 0.01816 0.00410 -0.03639
F5 6 -0.153801 0.530121 1.159167 11.00000 0.07610 0.08427 =
0.05328 -0.00528 0.02496 -0.04649
F6 6 -0.187114 0.398514 1.171386 11.00000 0.05557 0.04393 =
0.06864 -0.01686 -0.00371 0.00775
F7 6 -0.260103 0.502985 1.191421 11.00000 0.02983 0.04680 =
0.06807 -0.00028 0.01452 0.00364
F8 6 -0.146222 0.481371 1.236359 11.00000 0.03933 0.05948 =
0.05342 -0.01464 -0.00550 -0.00321
F9 6 0.279601 0.703103 1.363520 11.00000 0.15637 0.13787 =
0.25997 0.03590 0.12161 0.06822
F10 6 0.322400 0.780385 1.309087 11.00000 0.14244 0.11432 =
0.09229 -0.01059 -0.01922 0.02220
F11 6 0.391895 0.750006 1.373879 11.00000 0.12855
F12 6 0.105665 0.511194 1.006325 11.00000 0.05282 0.15051 =
0.04574 0.03846 0.00013 -0.01019
F13 6 0.161311 0.465315 0.947526 11.00000 0.05257 0.06427 =
0.11181 0.00133 0.00245 0.03163
F14 6 0.149279 0.594066 0.956636 11.00000 0.04569 0.05194 =
0.06865 0.01356 -0.00747 -0.01024
F15 6 0.510347 0.662326 1.078495 11.00000 0.27323 0.04408 =
0.12777 0.00163 0.05546 -0.05796
F16 6 0.508255 0.540218 1.041121 11.00000 0.08676 0.14025 =
0.05932 -0.03799 0.02442 0.00556
F17 6 0.400769 0.593996 1.058115 11.00000 0.11374 0.17849 =
0.08193 -0.04109 -0.03609 0.08620
S1 7 0.370376 0.632665 1.310575 11.00000 0.04819 0.05712 =
0.05810 0.00099 -0.00116 -0.00814
S2 7 0.024526 0.518157 0.919601 11.00000 0.03645 0.02814 =
0.04200 -0.00125 0.00471 -0.00011
S3 7 0.487618 0.540904 1.132972 11.00000 0.05275 0.06662 =
0.05240 0.00183 0.00828 0.00834
S4 7 -0.187632 0.751690 1.405069 11.00000 0.04608 0.04388 =
0.06252 0.02283 0.01979 0.00999
CO1 8 0.068423 1.004984 0.914622 11.00000 0.02535 0.02143 =
0.02378 -0.00412 0.00560 -0.00146
CO2 8 0.066881 0.554892 1.203151 11.00000 0.02020 0.02136 =
0.02218 -0.00205 0.00361 0.00011
PART 1
F18 6 -0.144659 0.640310 1.469137 21.00000 0.07852 0.18195 =
0.22010 0.17254 0.00292 0.00855
F19 6 -0.157131 0.760040 1.494860 21.00000 0.09642 0.20279 =
0.06240 -0.05155 0.00225 -0.02224
F20 6 -0.263065 0.651110 1.448082 21.00000 0.03893 0.08381 =
0.16213 0.05866 0.03638 -0.00576
C66 1 -0.191911 0.701978 1.459659 21.00000 0.02882 0.21338 =
0.18358 0.14672 0.00802 -0.02454
PART 2
C66A 1 -0.204778 0.659078 1.437735 -21.00000 0.08803 0.00604 =
0.06746 0.00450 0.02572 -0.00656
F18A 6 -0.178418 0.604189 1.404382 -21.00000 0.08609 0.00887 =
0.10304 -0.00006 0.03748 0.00657
F19A 6 -0.151213 0.639554 1.475683 -21.00000 0.03413 0.06656 =
0.04004 0.03086 -0.00033 -0.00296
F20A 6 -0.252627 0.691503 1.474844 -21.00000 0.04978
PART 0
C63 1 0.338485 0.721297 1.335279 11.00000 0.04368 0.02742 =
0.16922 -0.00518 -0.00902 0.02138
HKLF 4
REM AEK1145Co_0m in Cc
REM R1 = 0.0692 for 12161 Fo > 4sig(Fo) and 0.0761 for all 13504 data
REM 1175 parameters refined using 13 restraints
END
WGHT 0.1418 18.8801
REM Highest difference peak 1.371, deepest hole -1.010, 1-sigma level 0.115
Q1 1 0.4640 0.5023 1.0986 11.00000 0.05 1.37
Q2 1 0.4624 0.6036 1.1109 11.00000 0.05 1.29
Q3 1 -0.2045 0.8094 1.4529 11.00000 0.05 0.98
Q4 1 0.1040 0.7605 1.3322 11.00000 0.05 0.88
Q5 1 0.0741 0.4962 0.9282 11.00000 0.05 0.88
Q6 1 0.3285 0.7211 1.3037 11.00000 0.05 0.77
Q7 1 -0.2289 0.7641 1.3651 11.00000 0.05 0.74
Q8 1 -0.1613 0.7633 1.4295 11.00000 0.05 0.72
Q9 1 0.2702 0.3406 1.2197 11.00000 0.05 0.64
Q10 1 0.1637 0.2863 1.1700 11.00000 0.05 0.59
Q11 1 0.4932 0.4372 1.0730 11.00000 0.05 0.54
Q12 1 0.0858 0.4444 0.8885 11.00000 0.05 0.54
Q13 1 0.2274 0.2188 1.2359 11.00000 0.05 0.53
Q14 1 0.1555 0.3297 1.2488 11.00000 0.05 0.52
Q15 1 -0.2873 0.6869 1.0242 11.00000 0.05 0.52
Q16 1 0.3451 0.6231 1.3560 11.00000 0.05 0.52
Q17 1 -0.1882 0.6714 1.4276 11.00000 0.05 0.51
Q18 1 0.1895 0.6555 1.0687 11.00000 0.05 0.51
Q19 1 0.5110 0.4762 1.0641 11.00000 0.05 0.50
Q20 1 0.1719 1.0020 0.7328 11.00000 0.05 0.49
;
_cod_data_source_file            c3sc22239j.txt
_cod_data_source_block           shelxl
_cod_depositor_comments
;
The following automatic conversions were performed:

'_symmetry_cell_setting' value 'Monoclinic' changed to 'monoclinic'
according to
/usr/data/users/saulius/automatic-downloads/retrospective/RSC/lib/dictionaries/cif_core.dic
dictionary named 'cif_core.dic' version 2.4.2 from 2011-04-26.

Automatic conversion script
Id: cif_fix_values 2281 2013-09-26 08:29:07Z andrius 
;
_cod_original_cell_volume        7902.4
_cod_original_sg_symbol_H-M      Cc
_cod_database_code               1514479
loop_
_symmetry_equiv_pos_as_xyz
'x, y, z'
'x, -y, z+1/2'
'x+1/2, y+1/2, z'
'x+1/2, -y+1/2, z+1/2'
loop_
_atom_site_label
_atom_site_type_symbol
_atom_site_fract_x
_atom_site_fract_y
_atom_site_fract_z
_atom_site_U_iso_or_equiv
_atom_site_adp_type
_atom_site_occupancy
_atom_site_symmetry_multiplicity
_atom_site_calc_flag
_atom_site_refinement_flags
_atom_site_disorder_assembly
_atom_site_disorder_group
C1 C 0.0594(3) 0.8283(4) 0.9212(2) 0.0279(13) Uani 1 1 d . . .
C2 C 0.0670(4) 0.7497(4) 0.9061(3) 0.0404(16) Uani 1 1 d . . .
H2 H 0.0553 0.7068 0.9261 0.049 Uiso 1 1 calc R . .
C3 C 0.0916(4) 0.7332(4) 0.8615(3) 0.0392(16) Uani 1 1 d . . .
H3 H 0.0980 0.6795 0.8516 0.047 Uiso 1 1 calc R . .
C4 C 0.1065(4) 0.7970(4) 0.8322(3) 0.0330(14) Uani 1 1 d . . .
H4 H 0.1231 0.7872 0.8019 0.040 Uiso 1 1 calc R . .
C5 C 0.0967(4) 0.8768(4) 0.8476(2) 0.0288(13) Uani 1 1 d . . .
C6 C 0.1098(4) 0.9494(4) 0.8152(3) 0.0343(15) Uani 1 1 d . . .
C7 C 0.1284(6) 0.9195(5) 0.7659(3) 0.047(2) Uani 1 1 d . . .
H7A H 0.1792 0.8985 0.7696 0.071 Uiso 1 1 calc R . .
H7B H 0.1241 0.9641 0.7429 0.071 Uiso 1 1 calc R . .
H7C H 0.0936 0.8770 0.7539 0.071 Uiso 1 1 calc R . .
C8 C -0.0388(4) 1.0924(4) 0.8433(3) 0.0349(15) Uani 1 1 d . . .
H8 H -0.0492 1.1214 0.8709 0.042 Uiso 1 1 calc R . .
C9 C -0.0824(5) 1.1087(4) 0.7995(3) 0.0447(18) Uani 1 1 d . . .
H9 H -0.1211 1.1474 0.7974 0.054 Uiso 1 1 calc R . .
C10 C -0.0670(6) 1.0659(5) 0.7589(3) 0.052(2) Uani 1 1 d . . .
H10 H -0.0981 1.0707 0.7291 0.062 Uiso 1 1 calc R . .
C11 C -0.0037(6) 1.0154(4) 0.7635(3) 0.049(2) Uani 1 1 d . . .
H11 H 0.0107 0.9901 0.7358 0.059 Uiso 1 1 calc R . .
C12 C 0.0376(4) 1.0027(4) 0.8087(3) 0.0320(14) Uani 1 1 d . . .
C13 C 0.2175(4) 1.0810(5) 0.9097(3) 0.0394(16) Uani 1 1 d . . .
H13 H 0.2085 1.1068 0.9386 0.047 Uiso 1 1 calc R . .
C14 C 0.2847(5) 1.0951(6) 0.8930(4) 0.062(3) Uani 1 1 d . . .
H14 H 0.3217 1.1270 0.9110 0.075 Uiso 1 1 calc R . .
C15 C 0.2969(6) 1.0609(8) 0.8484(4) 0.084(4) Uani 1 1 d . . .
H15 H 0.3426 1.0690 0.8361 0.101 Uiso 1 1 calc R . .
C16 C 0.2402(6) 1.0146(5) 0.8224(4) 0.059(3) Uani 1 1 d . . .
H16 H 0.2465 0.9935 0.7917 0.071 Uiso 1 1 calc R . .
C17 C 0.1743(5) 0.9997(5) 0.8424(3) 0.0413(17) Uani 1 1 d . . .
C18 C 0.1672(4) 1.0195(5) 1.0085(3) 0.0369(15) Uani 1 1 d . . .
H25 H 0.1780 1.0708 0.9963 0.044 Uiso 1 1 calc R . .
C19 C 0.2031(5) 0.9968(6) 1.0538(3) 0.052(2) Uani 1 1 d . . .
H26 H 0.2378 1.0315 1.0717 0.063 Uiso 1 1 calc R . .
C20 C 0.1866(5) 0.9217(6) 1.0719(3) 0.056(2) Uani 1 1 d . . .
H27 H 0.2111 0.9041 1.1021 0.067 Uiso 1 1 calc R . .
C21 C 0.1344(5) 0.8733(5) 1.0457(3) 0.0484(19) Uani 1 1 d . . .
H28 H 0.1224 0.8226 1.0581 0.058 Uiso 1 1 calc R . .
C22 C 0.0988(4) 0.8995(4) 1.0004(2) 0.0298(13) Uani 1 1 d . . .
C23 C 0.0359(4) 0.8502(4) 0.9708(2) 0.0301(13) Uani 1 1 d . . .
C24 C 0.0190(5) 0.7719(5) 0.9979(3) 0.0430(17) Uani 1 1 d . . .
H19A H 0.0643 0.7396 1.0041 0.064 Uiso 1 1 calc R . .
H19B H -0.0194 0.7411 0.9780 0.064 Uiso 1 1 calc R . .
H19C H 0.0016 0.7858 1.0285 0.064 Uiso 1 1 calc R . .
C25 C -0.0855(4) 1.0329(4) 0.9406(3) 0.0348(14) Uani 1 1 d . . .
H20 H -0.0790 1.0857 0.9292 0.042 Uiso 1 1 calc R . .
C26 C -0.1537(4) 1.0129(4) 0.9553(3) 0.0353(15) Uani 1 1 d . . .
H21 H -0.1931 1.0507 0.9527 0.042 Uiso 1 1 calc R . .
C27 C -0.1634(4) 0.9351(5) 0.9741(3) 0.0454(18) Uani 1 1 d . . .
H22 H -0.2095 0.9193 0.9837 0.054 Uiso 1 1 calc R . .
C28 C -0.1029(4) 0.8824(5) 0.9779(3) 0.0419(17) Uani 1 1 d . . .
H23 H -0.1076 0.8305 0.9911 0.050 Uiso 1 1 calc R . .
C29 C -0.0346(4) 0.9053(4) 0.9624(2) 0.0328(14) Uani 1 1 d . . .
C30 C 0.0515(4) 1.1790(5) 0.9519(3) 0.048(2) Uani 1 1 d . . .
C31 C 0.0346(5) 1.2596(7) 0.9709(6) 0.088(4) Uani 1 1 d . . .
H45A H 0.0326 1.2559 1.0057 0.132 Uiso 1 1 calc R . .
H45B H -0.0134 1.2783 0.9547 0.132 Uiso 1 1 calc R . .
H45C H 0.0735 1.2975 0.9649 0.132 Uiso 1 1 calc R . .
C32 C -0.0367(3) 0.6334(4) 1.1283(2) 0.0247(12) Uani 1 1 d . . .
C33 C -0.0795(3) 0.6433(4) 1.0838(2) 0.0271(13) Uani 1 1 d . . .
H303 H -0.1075 0.6909 1.0771 0.032 Uiso 1 1 calc R . .
C34 C -0.0814(3) 0.5819(4) 1.0480(2) 0.0270(12) Uani 1 1 d . . .
H302 H -0.1092 0.5886 1.0171 0.032 Uiso 1 1 calc R . .
C35 C -0.0404(4) 0.5109(4) 1.0600(3) 0.0299(13) Uani 1 1 d . . .
H301 H -0.0414 0.4682 1.0375 0.036 Uiso 1 1 calc R . .
C36 C 0.0018(3) 0.5043(3) 1.1060(2) 0.0232(12) Uani 1 1 d . . .
C37 C -0.0185(4) 0.5891(4) 1.2851(2) 0.0291(13) Uani 1 1 d . . .
H402 H 0.0164 0.5539 1.3025 0.035 Uiso 1 1 calc R . .
C38 C -0.0761(4) 0.6210(4) 1.3093(2) 0.0297(13) Uani 1 1 d . . .
H403 H -0.0799 0.6075 1.3418 0.036 Uiso 1 1 calc R . .
C39 C -0.1274(4) 0.6733(4) 1.2834(3) 0.0342(14) Uani 1 1 d . . .
H404 H -0.1694 0.6922 1.2970 0.041 Uiso 1 1 calc R . .
C40 C -0.1152(3) 0.6967(3) 1.2374(2) 0.0270(13) Uani 1 1 d . . .
H405 H -0.1476 0.7347 1.2204 0.032 Uiso 1 1 calc R . .
C41 C -0.0559(3) 0.6653(4) 1.2153(2) 0.0247(12) Uani 1 1 d . . .
C42 C -0.0323(3) 0.6996(4) 1.1676(2) 0.0260(12) Uani 1 1 d . . .
C43 C -0.0843(4) 0.7719(4) 1.1492(2) 0.0291(13) Uani 1 1 d . . .
H40A H -0.1360 0.7536 1.1435 0.044 Uiso 1 1 calc R . .
H40B H -0.0696 0.7926 1.1190 0.044 Uiso 1 1 calc R . .
H40C H -0.0796 0.8145 1.1735 0.044 Uiso 1 1 calc R . .
C44 C 0.1692(4) 0.6948(4) 1.2200(3) 0.0338(14) Uani 1 1 d . . .
H31 H 0.2025 0.6572 1.2366 0.041 Uiso 1 1 calc R . .
C45 C 0.1929(4) 0.7780(5) 1.2157(3) 0.0405(16) Uani 1 1 d . . .
H32 H 0.2408 0.7945 1.2299 0.049 Uiso 1 1 calc R . .
C46 C 0.1448(4) 0.8326(4) 1.1908(3) 0.0402(16) Uani 1 1 d . . .
H33 H 0.1612 0.8854 1.1850 0.048 Uiso 1 1 calc R . .
C47 C 0.0711(4) 0.8091(4) 1.1739(2) 0.0347(15) Uani 1 1 d . . .
H34 H 0.0364 0.8470 1.1590 0.042 Uiso 1 1 calc R . .
C48 C 0.0493(3) 0.7264(4) 1.1798(2) 0.0245(12) Uani 1 1 d . . .
C49 C 0.2210(3) 0.5288(4) 1.1816(2) 0.0278(13) Uani 1 1 d . . .
H38 H 0.2334 0.5634 1.2084 0.033 Uiso 1 1 calc R . .
C50 C 0.2787(4) 0.4999(4) 1.1558(3) 0.0335(15) Uani 1 1 d . . .
H39 H 0.3285 0.5167 1.1648 0.040 Uiso 1 1 calc R . .
C51 C 0.2615(4) 0.4477(4) 1.1177(3) 0.0344(15) Uani 1 1 d . . .
H40 H 0.2990 0.4294 1.0997 0.041 Uiso 1 1 calc R . .
C52 C 0.1872(4) 0.4217(4) 1.1059(2) 0.0328(14) Uani 1 1 d . . .
H41 H 0.1751 0.3834 1.0810 0.039 Uiso 1 1 calc R . .
C53 C 0.1308(4) 0.4528(4) 1.1313(2) 0.0258(12) Uani 1 1 d . . .
C54 C 0.0483(3) 0.4282(4) 1.1206(2) 0.0240(12) Uani 1 1 d . . .
C55 C 0.0376(4) 0.3648(4) 1.0785(2) 0.0277(13) Uani 1 1 d . . .
H37A H 0.0635 0.3151 1.0890 0.041 Uiso 1 1 calc R . .
H37B H 0.0581 0.3862 1.0504 0.041 Uiso 1 1 calc R . .
H37C H -0.0154 0.3538 1.0698 0.041 Uiso 1 1 calc R . .
C56 C 0.0084(3) 0.4103(4) 1.2491(2) 0.0275(13) Uani 1 1 d . . .
H42 H 0.0138 0.4431 1.2771 0.033 Uiso 1 1 calc R . .
C57 C -0.0189(4) 0.3332(4) 1.2528(2) 0.0305(13) Uani 1 1 d . . .
H43 H -0.0316 0.3142 1.2827 0.037 Uiso 1 1 calc R . .
C58 C -0.0275(4) 0.2831(4) 1.2116(2) 0.0336(14) Uani 1 1 d . . .
H44 H -0.0472 0.2305 1.2127 0.040 Uiso 1 1 calc R . .
C59 C -0.0058(4) 0.3144(4) 1.1689(2) 0.0307(13) Uani 1 1 d . . .
H45 H -0.0105 0.2822 1.1407 0.037 Uiso 1 1 calc R . .
C60 C 0.0226(3) 0.3918(4) 1.1673(2) 0.0243(12) Uani 1 1 d . . .
C61 C 0.1714(3) 0.5052(4) 1.2947(3) 0.0276(13) Uani 1 1 d . . .
C62 C 0.2215(4) 0.4674(5) 1.3343(3) 0.0374(15) Uani 1 1 d . . .
H62A H 0.2419 0.4178 1.3226 0.056 Uiso 1 1 calc R . .
H62B H 0.1936 0.4551 1.3611 0.056 Uiso 1 1 calc R . .
H62C H 0.2621 0.5043 1.3454 0.056 Uiso 1 1 calc R . .
C64 C 0.1128(4) 0.5229(5) 0.9595(3) 0.0453(18) Uani 1 1 d . . .
C65 C 0.481(2) 0.5860(14) 1.0725(5) 0.218(18) Uani 1 1 d . . .
C67 C 0.2157(9) 0.6898(8) 1.0990(6) 0.091(4) Uani 1 1 d . . .
C68 C 0.2991(8) 0.7186(9) 1.1119(6) 0.104(5) Uani 1 1 d . . .
H68A H 0.2999 0.7759 1.1198 0.156 Uiso 1 1 calc R . .
H68B H 0.3261 0.7096 1.0842 0.156 Uiso 1 1 calc R . .
H68C H 0.3229 0.6883 1.1397 0.156 Uiso 1 1 calc R . .
C69 C 0.1189(8) 0.7402(7) 1.3401(4) 0.099(5) Uani 1 1 d D . .
C70 C 0.0884(7) 0.7980(8) 1.3071(4) 0.082(3) Uani 1 1 d D . .
H60A H 0.0978 0.7829 1.2746 0.123 Uiso 1 1 calc R . .
H60B H 0.1112 0.8502 1.3156 0.123 Uiso 1 1 calc R . .
H60C H 0.0347 0.8014 1.3081 0.123 Uiso 1 1 calc R . .
C71 C 0.1929(5) 0.2613(6) 1.2011(3) 0.0495(19) Uani 1 1 d . . .
C72 C 0.1860(5) 0.1985(6) 1.1643(3) 0.058(2) Uani 1 1 d . . .
H10A H 0.2126 0.1504 1.1772 0.087 Uiso 1 1 calc R . .
H10B H 0.2073 0.2173 1.1359 0.087 Uiso 1 1 calc R . .
H10C H 0.1334 0.1855 1.1551 0.087 Uiso 1 1 calc R . .
B1 B -0.2581(4) 0.7475(5) 1.0212(3) 0.0367(17) Uani 1 1 d . . .
B2 B -0.1849(4) 0.4793(5) 1.1894(3) 0.0360(18) Uani 1 1 d . . .
N1 N 0.0749(3) 0.8934(3) 0.89135(19) 0.0245(10) Uani 1 1 d . . .
N2 N 0.0174(3) 1.0382(3) 0.8494(2) 0.0298(11) Uani 1 1 d . . .
N3 N 0.1624(3) 1.0314(3) 0.8868(2) 0.0309(12) Uani 1 1 d . . .
N4 N 0.1177(3) 0.9718(4) 0.9810(2) 0.0298(12) Uani 1 1 d . . .
N5 N -0.0262(3) 0.9793(3) 0.9418(2) 0.0282(11) Uani 1 1 d . . .
N6 N 0.0619(3) 1.1156(3) 0.9376(2) 0.0310(12) Uani 1 1 d . . .
N7 N 0.0049(3) 0.5661(3) 1.13986(19) 0.0241(11) Uani 1 1 d . . .
N8 N -0.0104(3) 0.6060(3) 1.23887(19) 0.0260(10) Uani 1 1 d . . .
N9 N 0.0993(3) 0.6702(3) 1.20035(19) 0.0264(11) Uani 1 1 d . . .
N10 N 0.1483(3) 0.5075(3) 1.16864(19) 0.0238(10) Uani 1 1 d . . .
N11 N 0.0282(3) 0.4421(3) 1.20702(19) 0.0249(10) Uani 1 1 d . . .
N12 N 0.1321(3) 0.5333(3) 1.2632(2) 0.0263(11) Uani 1 1 d . . .
N13 N 0.1503(7) 0.6670(6) 1.0909(3) 0.074(3) Uani 1 1 d . . .
N14 N 0.1278(15) 0.6860(12) 1.3693(8) 0.196(9) Uiso 1 1 d D . .
N15 N 0.2017(4) 0.3121(5) 1.2302(3) 0.0547(18) Uani 1 1 d . . .
O1 O 0.4363(3) 0.6585(3) 1.2930(2) 0.0519(14) Uani 1 1 d . . .
O2 O 0.3132(3) 0.6087(3) 1.2752(2) 0.0514(14) Uani 1 1 d . . .
O3 O 0.3826(4) 0.5836(6) 1.3508(2) 0.085(3) Uani 1 1 d . . .
O4 O -0.0193(3) 0.5838(3) 0.9376(2) 0.0423(12) Uani 1 1 d . . .
O5 O 0.0478(4) 0.5326(4) 0.8720(2) 0.0514(14) Uani 1 1 d . . .
O6 O -0.0032(4) 0.4366(4) 0.9279(3) 0.0579(15) Uani 1 1 d . . .
O7 O 0.5686(4) 0.5266(5) 1.1450(3) 0.075(2) Uani 1 1 d . . .
O8 O 0.4503(4) 0.5990(4) 1.1611(2) 0.0550(15) Uani 1 1 d . . .
O9 O 0.4492(4) 0.4649(4) 1.1245(4) 0.091(3) Uani 1 1 d . . .
O10 O -0.1089(3) 0.7634(4) 1.4010(2) 0.0543(14) Uani 1 1 d . . .
O11 O -0.2351(6) 0.8084(9) 1.3967(7) 0.177(8) Uani 1 1 d . . .
O12 O -0.2224(6) 0.6926(14) 1.3703(4) 0.214(12) Uani 1 1 d . . .
F1 F -0.2089(2) 0.7886(3) 1.05547(17) 0.0455(10) Uani 1 1 d . . .
F2 F -0.2202(4) 0.6911(4) 0.9980(2) 0.085(2) Uani 1 1 d . . .
F3 F -0.2931(3) 0.8016(4) 0.9871(2) 0.081(2) Uani 1 1 d . . .
F4 F -0.3136(4) 0.7110(4) 1.0431(2) 0.0786(17) Uani 1 1 d . . .
F5 F -0.1538(3) 0.5301(4) 1.1592(2) 0.0698(16) Uani 1 1 d . . .
F6 F -0.1871(3) 0.3985(3) 1.1714(2) 0.0571(12) Uani 1 1 d . . .
F7 F -0.2601(2) 0.5030(3) 1.1914(2) 0.0475(11) Uani 1 1 d . . .
F8 F -0.1462(3) 0.4814(3) 1.23636(19) 0.0518(12) Uani 1 1 d . . .
F9 F 0.2796(7) 0.7031(7) 1.3635(5) 0.176(6) Uani 1 1 d D . .
F10 F 0.3224(6) 0.7804(6) 1.3091(3) 0.119(3) Uani 1 1 d D . .
F11 F 0.3919(6) 0.7500(6) 1.3739(4) 0.129(3) Uiso 1 1 d D . .
F12 F 0.1057(3) 0.5112(5) 1.0063(2) 0.084(2) Uani 1 1 d . . .
F13 F 0.1613(3) 0.4653(4) 0.9475(3) 0.0769(17) Uani 1 1 d . . .
F14 F 0.1493(3) 0.5941(3) 0.9566(2) 0.0567(12) Uani 1 1 d . . .
F15 F 0.5103(8) 0.6623(4) 1.0785(4) 0.146(4) Uani 1 1 d . . .
F16 F 0.5083(4) 0.5402(6) 1.0411(2) 0.094(2) Uani 1 1 d . . .
F17 F 0.4008(5) 0.5940(7) 1.0581(3) 0.129(4) Uani 1 1 d . . .
S1 S 0.37038(13) 0.63267(14) 1.31057(9) 0.0552(5) Uani 1 1 d . . .
S2 S 0.02453(10) 0.51816(10) 0.91960(7) 0.0356(4) Uani 1 1 d . . .
S3 S 0.48762(14) 0.54090(16) 1.13297(9) 0.0571(5) Uani 1 1 d . . .
S4 S -0.18763(12) 0.75169(13) 1.40507(8) 0.0497(5) Uani 1 1 d . A .
Co1 Co 0.06842(4) 1.00498(5) 0.91462(3) 0.02331(19) Uani 1 1 d . . .
Co2 Co 0.06688(4) 0.55489(5) 1.20315(3) 0.02117(18) Uani 1 1 d . . .
F18 F -0.1447(14) 0.6403(17) 1.4691(10) 0.162(14) Uani 0.664(14) 1 d PD A 1
F19 F -0.1571(7) 0.7600(10) 1.4949(4) 0.121(6) Uani 0.664(14) 1 d PD A 1
F20 F -0.2631(5) 0.6511(7) 1.4481(5) 0.093(5) Uani 0.664(14) 1 d PD A 1
C66 C -0.1919(8) 0.7020(12) 1.4597(8) 0.142(15) Uani 0.664(14) 1 d PD A 1
C66A C -0.2048(14) 0.6591(11) 1.4377(8) 0.052(9) Uani 0.336(14) 1 d PD A 2
F18A F -0.1784(10) 0.6042(7) 1.4044(7) 0.064(6) Uani 0.336(14) 1 d PD A 2
F19A F -0.1512(15) 0.6396(17) 1.4757(8) 0.047(6) Uani 0.336(14) 1 d PD A 2
F20A F -0.2526(9) 0.6915(10) 1.4748(5) 0.050(4) Uiso 0.336(14) 1 d PD A 2
C63 C 0.3385(5) 0.7213(5) 1.3353(5) 0.082(4) Uani 1 1 d D . .
loop_
_atom_site_aniso_label
_atom_site_aniso_U_11
_atom_site_aniso_U_22
_atom_site_aniso_U_33
_atom_site_aniso_U_23
_atom_site_aniso_U_13
_atom_site_aniso_U_12
C1 0.026(3) 0.022(3) 0.035(3) -0.001(2) -0.002(3) 0.001(2)
C2 0.043(4) 0.031(4) 0.044(4) 0.005(3) -0.005(3) 0.006(3)
C3 0.039(4) 0.027(3) 0.048(4) -0.007(3) -0.008(3) 0.011(3)
C4 0.028(3) 0.034(3) 0.036(3) -0.012(3) -0.002(3) 0.003(3)
C5 0.027(3) 0.031(3) 0.028(3) -0.004(3) 0.004(2) -0.001(3)
C6 0.045(4) 0.020(3) 0.040(4) -0.010(3) 0.013(3) -0.005(3)
C7 0.077(6) 0.031(4) 0.039(4) -0.013(3) 0.022(4) -0.014(4)
C8 0.038(4) 0.026(3) 0.041(4) 0.005(3) 0.005(3) -0.005(3)
C9 0.051(4) 0.022(3) 0.056(5) 0.012(3) -0.012(4) 0.002(3)
C10 0.072(6) 0.029(4) 0.048(5) 0.010(3) -0.013(4) -0.009(4)
C11 0.096(7) 0.028(4) 0.024(3) 0.001(3) 0.006(4) -0.012(4)
C12 0.042(4) 0.022(3) 0.032(4) -0.002(3) 0.007(3) -0.005(3)
C13 0.036(4) 0.044(4) 0.041(4) -0.011(3) 0.013(3) -0.013(3)
C14 0.049(5) 0.072(6) 0.073(6) -0.033(5) 0.032(4) -0.029(4)
C15 0.059(6) 0.108(9) 0.098(8) -0.065(7) 0.059(6) -0.047(6)
C16 0.069(6) 0.051(5) 0.067(6) -0.025(4) 0.045(5) -0.034(4)
C17 0.039(4) 0.050(4) 0.038(4) -0.010(3) 0.018(3) -0.006(3)
C18 0.030(3) 0.047(4) 0.034(4) -0.007(3) 0.003(3) -0.009(3)
C19 0.046(5) 0.068(6) 0.040(4) -0.005(4) -0.001(4) -0.012(4)
C20 0.061(5) 0.071(6) 0.031(4) 0.009(4) -0.012(4) -0.012(5)
C21 0.054(5) 0.055(5) 0.038(4) 0.015(4) 0.015(4) 0.002(4)
C22 0.032(3) 0.031(3) 0.027(3) 0.003(3) 0.006(3) 0.003(3)
C23 0.032(3) 0.026(3) 0.032(3) 0.006(3) 0.005(3) 0.004(3)
C24 0.050(4) 0.043(4) 0.036(4) 0.012(3) 0.003(3) -0.011(3)
C25 0.031(3) 0.031(3) 0.042(4) -0.005(3) 0.004(3) 0.002(3)
C26 0.029(3) 0.036(4) 0.042(4) -0.008(3) 0.009(3) 0.001(3)
C27 0.034(4) 0.053(5) 0.050(5) -0.001(4) 0.011(3) -0.011(3)
C28 0.035(4) 0.050(4) 0.042(4) 0.007(3) 0.011(3) -0.009(3)
C29 0.033(3) 0.040(4) 0.026(3) -0.004(3) 0.004(3) -0.002(3)
C30 0.024(3) 0.043(4) 0.075(6) -0.023(4) -0.002(3) 0.001(3)
C31 0.038(4) 0.065(6) 0.158(12) -0.074(7) -0.004(6) 0.009(4)
C32 0.026(3) 0.019(3) 0.030(3) 0.001(2) 0.007(2) -0.002(2)
C33 0.027(3) 0.019(3) 0.035(3) 0.003(2) 0.007(3) -0.001(2)
C34 0.026(3) 0.029(3) 0.025(3) -0.003(2) 0.001(2) 0.000(2)
C35 0.027(3) 0.033(3) 0.030(3) -0.004(3) 0.006(3) 0.000(3)
C36 0.019(3) 0.026(3) 0.026(3) 0.000(2) 0.007(2) -0.001(2)
C37 0.032(3) 0.022(3) 0.034(3) -0.003(2) 0.006(3) -0.001(2)
C38 0.034(3) 0.030(3) 0.028(3) -0.004(3) 0.013(3) -0.004(3)
C39 0.027(3) 0.033(3) 0.044(4) -0.009(3) 0.012(3) 0.000(3)
C40 0.024(3) 0.018(3) 0.039(3) -0.003(2) 0.003(3) 0.002(2)
C41 0.030(3) 0.022(3) 0.023(3) 0.004(2) 0.004(2) 0.002(2)
C42 0.028(3) 0.023(3) 0.028(3) 0.002(2) 0.006(2) 0.001(2)
C43 0.035(3) 0.018(3) 0.035(3) 0.002(2) 0.005(3) 0.003(2)
C44 0.024(3) 0.039(4) 0.038(4) -0.007(3) 0.003(3) -0.012(3)
C45 0.031(3) 0.050(4) 0.041(4) -0.005(3) 0.007(3) -0.016(3)
C46 0.051(4) 0.025(3) 0.046(4) -0.001(3) 0.011(3) -0.017(3)
C47 0.041(4) 0.032(3) 0.032(4) 0.002(3) 0.011(3) -0.006(3)
C48 0.025(3) 0.020(3) 0.029(3) 0.004(2) 0.005(2) -0.001(2)
C49 0.024(3) 0.033(3) 0.026(3) -0.001(3) 0.001(2) 0.003(3)
C50 0.021(3) 0.039(4) 0.041(4) 0.003(3) 0.007(3) 0.004(3)
C51 0.030(3) 0.041(4) 0.035(4) 0.003(3) 0.015(3) 0.011(3)
C52 0.039(3) 0.033(3) 0.028(3) 0.001(3) 0.012(3) 0.014(3)
C53 0.025(3) 0.023(3) 0.031(3) 0.002(2) 0.006(2) 0.004(2)
C54 0.023(3) 0.025(3) 0.025(3) 0.001(2) 0.004(2) 0.005(2)
C55 0.032(3) 0.026(3) 0.026(3) -0.007(2) 0.004(2) 0.004(2)
C56 0.029(3) 0.021(3) 0.033(3) 0.000(2) 0.004(3) -0.006(2)
C57 0.035(3) 0.026(3) 0.031(3) 0.004(3) 0.005(3) -0.002(3)
C58 0.034(3) 0.031(3) 0.034(3) 0.002(3) 0.001(3) -0.006(3)
C59 0.037(3) 0.017(3) 0.038(4) -0.008(3) 0.003(3) -0.002(2)
C60 0.023(3) 0.022(3) 0.028(3) -0.004(2) 0.004(2) 0.002(2)
C61 0.019(3) 0.034(3) 0.031(4) 0.001(3) 0.007(3) -0.001(2)
C62 0.031(3) 0.049(4) 0.031(4) 0.005(3) 0.000(3) 0.005(3)
C64 0.038(4) 0.047(4) 0.051(5) 0.022(4) 0.002(3) 0.006(3)
C65 0.45(5) 0.159(18) 0.034(6) -0.017(8) 0.002(13) 0.20(3)
C67 0.093(9) 0.067(7) 0.124(11) 0.030(7) 0.052(9) 0.023(7)
C68 0.088(9) 0.087(9) 0.142(13) 0.009(9) 0.030(9) -0.002(7)
C69 0.179(14) 0.077(7) 0.056(6) -0.020(6) 0.067(8) -0.066(9)
C70 0.075(7) 0.097(9) 0.080(7) -0.016(7) 0.032(6) 0.021(6)
C71 0.042(4) 0.054(5) 0.053(5) 0.013(4) 0.011(4) 0.010(4)
C72 0.046(4) 0.074(6) 0.052(5) 0.025(5) 0.000(4) 0.001(4)
B1 0.024(3) 0.039(4) 0.046(5) -0.011(3) 0.000(3) -0.006(3)
B2 0.021(3) 0.046(4) 0.042(5) -0.018(4) 0.011(3) -0.012(3)
N1 0.022(2) 0.024(2) 0.028(3) -0.008(2) 0.005(2) -0.0004(19)
N2 0.033(3) 0.023(2) 0.034(3) -0.005(2) 0.008(2) -0.008(2)
N3 0.028(3) 0.028(3) 0.038(3) -0.010(2) 0.008(2) -0.005(2)
N4 0.027(3) 0.036(3) 0.027(3) -0.003(2) 0.004(2) 0.003(2)
N5 0.026(3) 0.031(3) 0.028(3) -0.003(2) 0.006(2) -0.002(2)
N6 0.026(3) 0.028(3) 0.039(3) -0.003(2) 0.005(2) 0.001(2)
N7 0.019(2) 0.028(3) 0.027(3) 0.000(2) 0.008(2) -0.0052(19)
N8 0.024(2) 0.025(2) 0.030(3) -0.001(2) 0.006(2) 0.000(2)
N9 0.027(2) 0.028(3) 0.025(3) -0.001(2) 0.008(2) -0.002(2)
N10 0.022(2) 0.027(3) 0.023(3) -0.001(2) 0.003(2) 0.0008(19)
N11 0.027(3) 0.021(2) 0.027(3) 0.001(2) 0.003(2) 0.0052(19)
N12 0.026(3) 0.026(3) 0.028(3) -0.010(2) 0.005(2) -0.005(2)
N13 0.109(8) 0.073(6) 0.039(4) 0.013(4) 0.006(4) 0.030(6)
N15 0.063(5) 0.043(4) 0.056(4) 0.015(4) 0.001(4) 0.014(3)
O1 0.040(3) 0.037(3) 0.080(4) 0.005(3) 0.014(3) -0.009(2)
O2 0.045(3) 0.038(3) 0.063(4) -0.006(3) -0.022(3) -0.008(2)
O3 0.072(5) 0.141(7) 0.039(4) 0.032(4) -0.010(3) -0.030(5)
O4 0.033(2) 0.039(3) 0.055(3) 0.000(2) 0.007(2) 0.003(2)
O5 0.058(3) 0.055(3) 0.041(3) -0.012(3) 0.006(3) 0.004(3)
O6 0.055(3) 0.041(3) 0.077(4) 0.001(3) 0.006(3) -0.003(3)
O7 0.057(4) 0.102(5) 0.061(4) 0.011(4) -0.010(3) 0.010(4)
O8 0.066(4) 0.062(4) 0.039(3) -0.007(3) 0.014(3) 0.003(3)
O9 0.046(4) 0.046(4) 0.179(9) -0.020(5) 0.005(5) 0.001(3)
O10 0.050(3) 0.049(3) 0.066(4) 0.008(3) 0.013(3) -0.013(3)
O11 0.061(5) 0.151(11) 0.306(19) 0.137(13) -0.031(8) -0.011(6)
O12 0.064(6) 0.49(3) 0.091(7) -0.148(13) 0.023(5) -0.100(11)
F1 0.040(2) 0.036(2) 0.057(3) -0.0230(19) -0.0072(19) 0.0020(18)
F2 0.072(4) 0.099(5) 0.077(4) -0.057(4) -0.020(3) 0.034(3)
F3 0.048(3) 0.082(4) 0.104(5) 0.056(4) -0.027(3) -0.016(3)
F4 0.076(4) 0.086(4) 0.073(4) 0.018(3) 0.004(3) -0.036(3)
F5 0.076(4) 0.084(4) 0.053(3) -0.005(3) 0.025(3) -0.046(3)
F6 0.056(3) 0.044(3) 0.069(3) -0.017(2) -0.004(2) 0.008(2)
F7 0.030(2) 0.047(2) 0.068(3) 0.000(2) 0.015(2) 0.0036(17)
F8 0.039(2) 0.059(3) 0.053(3) -0.015(2) -0.006(2) -0.003(2)
F9 0.156(10) 0.138(9) 0.260(15) 0.036(9) 0.122(11) 0.068(8)
F10 0.142(8) 0.114(7) 0.092(5) -0.011(5) -0.019(5) 0.022(6)
F12 0.053(3) 0.151(6) 0.046(3) 0.038(3) 0.000(2) -0.010(4)
F13 0.053(3) 0.064(3) 0.112(5) 0.001(3) 0.002(3) 0.032(3)
F14 0.046(3) 0.052(3) 0.069(3) 0.014(2) -0.007(2) -0.010(2)
F15 0.273(14) 0.044(4) 0.128(7) 0.002(4) 0.055(8) -0.058(6)
F16 0.087(4) 0.140(6) 0.059(4) -0.038(4) 0.024(3) 0.006(4)
F17 0.114(6) 0.178(9) 0.082(5) -0.041(5) -0.036(5) 0.086(6)
S1 0.0482(11) 0.0571(12) 0.0581(13) 0.0010(10) -0.0012(9) -0.0081(10)
S2 0.0365(9) 0.0281(8) 0.0420(10) -0.0013(7) 0.0047(7) -0.0001(7)
S3 0.0527(12) 0.0666(14) 0.0524(12) 0.0018(10) 0.0083(10) 0.0083(11)
S4 0.0461(10) 0.0439(10) 0.0625(13) 0.0228(9) 0.0198(9) 0.0100(8)
Co1 0.0253(4) 0.0214(4) 0.0238(4) -0.0041(3) 0.0056(3) -0.0015(3)
Co2 0.0202(3) 0.0214(4) 0.0222(4) -0.0021(3) 0.0036(3) 0.0001(3)
F18 0.079(13) 0.18(2) 0.22(2) 0.173(19) 0.003(13) 0.009(12)
F19 0.096(9) 0.203(16) 0.062(7) -0.052(8) 0.002(6) -0.022(9)
F20 0.039(5) 0.084(7) 0.162(12) 0.059(8) 0.036(6) -0.006(4)
C66 0.029(8) 0.21(3) 0.18(3) 0.15(3) 0.008(13) -0.025(14)
C66A 0.09(3) 0.006(9) 0.067(18) 0.005(9) 0.026(16) -0.007(11)
F18A 0.086(12) 0.009(6) 0.103(14) 0.000(6) 0.037(10) 0.007(6)
F19A 0.034(10) 0.067(14) 0.040(9) 0.031(9) 0.000(7) -0.003(9)
C63 0.044(5) 0.027(4) 0.169(12) -0.005(6) -0.009(6) 0.021(4)
loop_
_atom_type_symbol
_atom_type_description
_atom_type_scat_dispersion_real
_atom_type_scat_dispersion_imag
_atom_type_scat_source
C C 0.0033 0.0016 'International Tables Vol C Tables 4.2.6.8 and 6.1.1.4'
H H 0.0000 0.0000 'International Tables Vol C Tables 4.2.6.8 and 6.1.1.4'
B B 0.0013 0.0007 'International Tables Vol C Tables 4.2.6.8 and 6.1.1.4'
N N 0.0061 0.0033 'International Tables Vol C Tables 4.2.6.8 and 6.1.1.4'
O O 0.0106 0.0060 'International Tables Vol C Tables 4.2.6.8 and 6.1.1.4'
F F 0.0171 0.0103 'International Tables Vol C Tables 4.2.6.8 and 6.1.1.4'
S S 0.1246 0.1234 'International Tables Vol C Tables 4.2.6.8 and 6.1.1.4'
Co Co 0.3494 0.9721 'International Tables Vol C Tables 4.2.6.8 and 6.1.1.4'
loop_
_geom_angle_atom_site_label_1
_geom_angle_atom_site_label_2
_geom_angle_atom_site_label_3
_geom_angle
C2 C1 N1 120.6(6)
C2 C1 C23 122.9(6)
N1 C1 C23 116.5(5)
C1 C2 C3 120.6(7)
C1 C2 H2 119.7
C3 C2 H2 119.7
C4 C3 C2 118.8(6)
C4 C3 H3 120.6
C2 C3 H3 120.6
C3 C4 C5 119.8(6)
C3 C4 H4 120.1
C5 C4 H4 120.1
N1 C5 C4 121.9(6)
N1 C5 C6 116.8(5)
C4 C5 C6 121.3(6)
C7 C6 C5 109.8(5)
C7 C6 C17 111.9(6)
C5 C6 C17 107.3(6)
C7 C6 C12 110.8(7)
C5 C6 C12 108.5(5)
C17 C6 C12 108.3(5)
C6 C7 H7A 109.5
C6 C7 H7B 109.5
H7A C7 H7B 109.5
C6 C7 H7C 109.5
H7A C7 H7C 109.5
H7B C7 H7C 109.5
N2 C8 C9 124.8(7)
N2 C8 H8 117.6
C9 C8 H8 117.6
C8 C9 C10 117.6(7)
C8 C9 H9 121.2
C10 C9 H9 121.2
C9 C10 C11 118.3(7)
C9 C10 H10 120.8
C11 C10 H10 120.8
C12 C11 C10 120.3(7)
C12 C11 H11 119.8
C10 C11 H11 119.8
N2 C12 C11 120.8(7)
N2 C12 C6 117.2(6)
C11 C12 C6 122.0(7)
C14 C13 N3 124.0(7)
C14 C13 H13 118.0
N3 C13 H13 118.0
C13 C14 C15 118.4(8)
C13 C14 H14 120.8
C15 C14 H14 120.8
C16 C15 C14 119.2(8)
C16 C15 H15 120.4
C14 C15 H15 120.4
C15 C16 C17 119.6(8)
C15 C16 H16 120.2
C17 C16 H16 120.2
N3 C17 C16 121.8(7)
N3 C17 C6 116.5(6)
C16 C17 C6 121.7(7)
N4 C18 C19 123.3(7)
N4 C18 H25 118.4
C19 C18 H25 118.4
C20 C19 C18 118.3(8)
C20 C19 H26 120.9
C18 C19 H26 120.9
C21 C20 C19 119.8(8)
C21 C20 H27 120.1
C19 C20 H27 120.1
C20 C21 C22 119.8(8)
C20 C21 H28 120.1
C22 C21 H28 120.1
N4 C22 C21 120.8(7)
N4 C22 C23 117.0(6)
C21 C22 C23 122.1(6)
C1 C23 C22 109.5(5)
C1 C23 C24 109.4(6)
C22 C23 C24 111.2(6)
C1 C23 C29 108.5(5)
C22 C23 C29 107.4(5)
C24 C23 C29 110.8(6)
C23 C24 H19A 109.5
C23 C24 H19B 109.5
H19A C24 H19B 109.5
C23 C24 H19C 109.5
H19A C24 H19C 109.5
H19B C24 H19C 109.5
N5 C25 C26 123.4(7)
N5 C25 H20 118.3
C26 C25 H20 118.3
C25 C26 C27 119.1(7)
C25 C26 H21 120.5
C27 C26 H21 120.5
C28 C27 C26 117.9(7)
C28 C27 H22 121.0
C26 C27 H22 121.0
C27 C28 C29 121.0(7)
C27 C28 H23 119.5
C29 C28 H23 119.5
N5 C29 C28 121.1(7)
N5 C29 C23 117.1(6)
C28 C29 C23 121.7(6)
N6 C30 C31 177.4(9)
C30 C31 H45A 109.5
C30 C31 H45B 109.5
H45A C31 H45B 109.5
C30 C31 H45C 109.5
H45A C31 H45C 109.5
H45B C31 H45C 109.5
N7 C32 C33 122.4(6)
N7 C32 C42 116.0(5)
C33 C32 C42 121.5(5)
C32 C33 C34 120.2(6)
C32 C33 H303 119.9
C34 C33 H303 119.9
C35 C34 C33 118.0(6)
C35 C34 H302 121.0
C33 C34 H302 121.0
C36 C35 C34 119.1(6)
C36 C35 H301 120.4
C34 C35 H301 120.4
N7 C36 C35 122.0(5)
N7 C36 C54 116.9(5)
C35 C36 C54 121.1(5)
N8 C37 C38 123.8(6)
N8 C37 H402 118.1
C38 C37 H402 118.1
C39 C38 C37 117.8(6)
C39 C38 H403 121.1
C37 C38 H403 121.1
C40 C39 C38 118.5(6)
C40 C39 H404 120.8
C38 C39 H404 120.8
C39 C40 C41 121.6(6)
C39 C40 H405 119.2
C41 C40 H405 119.2
N8 C41 C40 119.7(5)
N8 C41 C42 116.8(5)
C40 C41 C42 123.2(5)
C48 C42 C32 108.8(5)
C48 C42 C41 106.2(5)
C32 C42 C41 110.6(5)
C48 C42 C43 111.5(5)
C32 C42 C43 109.8(5)
C41 C42 C43 109.9(5)
C42 C43 H40A 109.5
C42 C43 H40B 109.5
H40A C43 H40B 109.5
C42 C43 H40C 109.5
H40A C43 H40C 109.5
H40B C43 H40C 109.5
N9 C44 C45 121.0(7)
N9 C44 H31 119.5
C45 C44 H31 119.5
C46 C45 C44 119.5(6)
C46 C45 H32 120.2
C44 C45 H32 120.2
C45 C46 C47 119.5(6)
C45 C46 H33 120.2
C47 C46 H33 120.2
C46 C47 C48 119.0(7)
C46 C47 H34 120.5
C48 C47 H34 120.5
N9 C48 C47 121.4(6)
N9 C48 C42 117.2(5)
C47 C48 C42 121.2(5)
N10 C49 C50 121.5(6)
N10 C49 H38 119.3
C50 C49 H38 119.3
C51 C50 C49 119.7(6)
C51 C50 H39 120.2
C49 C50 H39 120.2
C50 C51 C52 119.1(6)
C50 C51 H40 120.4
C52 C51 H40 120.4
C51 C52 C53 120.0(6)
C51 C52 H41 120.0
C53 C52 H41 120.0
N10 C53 C52 120.4(6)
N10 C53 C54 116.1(5)
C52 C53 C54 123.5(6)
C53 C54 C36 108.4(5)
C53 C54 C60 109.2(5)
C36 C54 C60 109.0(5)
C53 C54 C55 110.2(5)
C36 C54 C55 110.0(5)
C60 C54 C55 110.1(5)
C54 C55 H37A 109.5
C54 C55 H37B 109.5
H37A C55 H37B 109.5
C54 C55 H37C 109.5
H37A C55 H37C 109.5
H37B C55 H37C 109.5
N11 C56 C57 123.6(6)
N11 C56 H42 118.2
C57 C56 H42 118.2
C56 C57 C58 119.3(6)
C56 C57 H43 120.4
C58 C57 H43 120.4
C59 C58 C57 117.4(6)
C59 C58 H44 121.3
C57 C58 H44 121.3
C60 C59 C58 121.1(6)
C60 C59 H45 119.5
C58 C59 H45 119.5
N11 C60 C59 121.7(6)
N11 C60 C54 115.9(5)
C59 C60 C54 122.5(6)
N12 C61 C62 178.5(7)
C61 C62 H62A 109.5
C61 C62 H62B 109.5
H62A C62 H62B 109.5
C61 C62 H62C 109.5
H62A C62 H62C 109.5
H62B C62 H62C 109.5
F12 C64 F14 106.9(8)
F12 C64 F13 106.3(7)
F14 C64 F13 105.1(7)
F12 C64 S2 113.6(6)
F14 C64 S2 113.2(5)
F13 C64 S2 111.1(6)
F16 C65 F15 116(3)
F16 C65 F17 108.6(18)
F15 C65 F17 107.7(12)
F16 C65 S3 113.1(11)
F15 C65 S3 106.6(12)
F17 C65 S3 104(2)
N13 C67 C68 177.3(15)
C67 C68 H68A 109.5
C67 C68 H68B 109.5
H68A C68 H68B 109.5
C67 C68 H68C 109.5
H68A C68 H68C 109.5
H68B C68 H68C 109.5
N14 C69 C70 164.4(19)
C69 C70 H60A 109.5
C69 C70 H60B 109.5
H60A C70 H60B 109.5
C69 C70 H60C 109.5
H60A C70 H60C 109.5
H60B C70 H60C 109.5
N15 C71 C72 177.0(10)
C71 C72 H10A 109.5
C71 C72 H10B 109.5
H10A C72 H10B 109.5
C71 C72 H10C 109.5
H10A C72 H10C 109.5
H10B C72 H10C 109.5
F2 B1 F4 110.2(7)
F2 B1 F1 110.2(6)
F4 B1 F1 110.5(7)
F2 B1 F3 109.1(8)
F4 B1 F3 106.9(6)
F1 B1 F3 110.0(7)
F5 B2 F8 111.5(6)
F5 B2 F7 109.0(7)
F8 B2 F7 108.6(6)
F5 B2 F6 111.0(6)
F8 B2 F6 109.8(7)
F7 B2 F6 106.8(6)
C5 N1 C1 118.3(5)
C5 N1 Co1 121.6(4)
C1 N1 Co1 120.0(4)
C8 N2 C12 117.5(6)
C8 N2 Co1 123.1(5)
C12 N2 Co1 119.4(5)
C13 N3 C17 116.9(6)
C13 N3 Co1 123.2(5)
C17 N3 Co1 120.0(5)
C18 N4 C22 117.8(6)
C18 N4 Co1 122.5(5)
C22 N4 Co1 119.6(4)
C29 N5 C25 117.2(6)
C29 N5 Co1 119.6(4)
C25 N5 Co1 123.2(5)
C30 N6 Co1 173.7(6)
C32 N7 C36 118.2(5)
C32 N7 Co2 121.4(4)
C36 N7 Co2 120.4(4)
C37 N8 C41 117.9(5)
C37 N8 Co2 123.8(4)
C41 N8 Co2 118.2(4)
C48 N9 C44 119.1(6)
C48 N9 Co2 119.1(4)
C44 N9 Co2 121.8(5)
C49 N10 C53 119.1(5)
C49 N10 Co2 120.6(4)
C53 N10 Co2 120.3(4)
C56 N11 C60 116.9(5)
C56 N11 Co2 122.3(4)
C60 N11 Co2 120.8(4)
C61 N12 Co2 166.1(5)
S4 O12 C66A 63.2(7)
O3 S1 O2 115.6(4)
O3 S1 O1 114.1(5)
O2 S1 O1 115.1(4)
O3 S1 C63 101.7(6)
O2 S1 C63 105.5(4)
O1 S1 C63 102.5(4)
O5 S2 O4 114.7(3)
O5 S2 O6 115.9(4)
O4 S2 O6 114.7(4)
O5 S2 C64 102.3(4)
O4 S2 C64 103.1(4)
O6 S2 C64 103.5(4)
O9 S3 O8 114.7(5)
O9 S3 O7 109.7(5)
O8 S3 O7 119.8(5)
O9 S3 C65 103.5(11)
O8 S3 C65 104.1(5)
O7 S3 C65 102.7(12)
O11 S4 O10 121.9(6)
O11 S4 O12 98.8(11)
O10 S4 O12 112.2(5)
O11 S4 C66A 123.9(9)
O10 S4 C66A 112.4(8)
O12 S4 C66A 71.3(11)
O11 S4 C66 113.9(11)
O10 S4 C66 106.7(6)
O12 S4 C66 101.3(10)
C66A S4 C66 30.6(8)
N6 Co1 N1 179.9(3)
N6 Co1 N3 90.7(2)
N1 Co1 N3 89.3(2)
N6 Co1 N5 89.2(2)
N1 Co1 N5 90.8(2)
N3 Co1 N5 179.3(3)
N6 Co1 N2 89.9(2)
N1 Co1 N2 90.0(2)
N3 Co1 N2 84.4(2)
N5 Co1 N2 94.9(2)
N6 Co1 N4 89.7(2)
N1 Co1 N4 90.4(2)
N3 Co1 N4 96.8(2)
N5 Co1 N4 83.8(2)
N2 Co1 N4 178.7(2)
N12 Co2 N7 174.0(2)
N12 Co2 N8 92.0(2)
N7 Co2 N8 93.0(2)
N12 Co2 N9 93.5(2)
N7 Co2 N9 90.6(2)
N8 Co2 N9 80.9(2)
N12 Co2 N11 87.6(2)
N7 Co2 N11 88.5(2)
N8 Co2 N11 95.6(2)
N9 Co2 N11 176.4(2)
N12 Co2 N10 86.6(2)
N7 Co2 N10 88.6(2)
N8 Co2 N10 177.2(2)
N9 Co2 N10 96.8(2)
N11 Co2 N10 86.7(2)
F18 C66 F19 99.5(18)
F18 C66 F20 96.7(17)
F19 C66 F20 141.3(18)
F18 C66 S4 115.8(17)
F19 C66 S4 102.1(11)
F20 C66 S4 102.0(11)
F19A C66A F18A 95.1(17)
F19A C66A F20A 88.1(18)
F18A C66A F20A 159(2)
F19A C66A S4 116(2)
F18A C66A S4 96.9(12)
F20A C66A S4 100.8(11)
F19A C66A O12 145(2)
F18A C66A O12 65.2(11)
F20A C66A O12 121.1(15)
S4 C66A O12 45.4(8)
F10 C63 F11 105.3(9)
F10 C63 F9 110.9(9)
F11 C63 F9 97.7(12)
F10 C63 S1 119.9(11)
F11 C63 S1 110.5(7)
F9 C63 S1 110.1(7)
loop_
_geom_bond_atom_site_label_1
_geom_bond_atom_site_label_2
_geom_bond_distance
C1 C2 1.362(10)
C1 N1 1.391(8)
C1 C23 1.519(9)
C2 C3 1.378(11)
C2 H2 0.9300
C3 C4 1.363(11)
C3 H3 0.9300
C4 C5 1.389(9)
C4 H4 0.9300
C5 N1 1.334(8)
C5 C6 1.520(9)
C6 C7 1.513(10)
C6 C17 1.526(11)
C6 C12 1.543(10)
C7 H7A 0.9600
C7 H7B 0.9600
C7 H7C 0.9600
C8 N2 1.330(9)
C8 C9 1.368(11)
C8 H8 0.9300
C9 C10 1.372(13)
C9 H9 0.9300
C10 C11 1.388(14)
C10 H10 0.9300
C11 C12 1.372(11)
C11 H11 0.9300
C12 N2 1.346(9)
C13 C14 1.354(11)
C13 N3 1.360(9)
C13 H13 0.9300
C14 C15 1.387(13)
C14 H14 0.9300
C15 C16 1.381(13)
C15 H15 0.9300
C16 C17 1.378(11)
C16 H16 0.9300
C17 N3 1.364(9)
C18 N4 1.335(9)
C18 C19 1.372(12)
C18 H25 0.9300
C19 C20 1.370(13)
C19 H26 0.9300
C20 C21 1.353(13)
C20 H27 0.9300
C21 C22 1.387(10)
C21 H28 0.9300
C22 N4 1.356(9)
C22 C23 1.523(10)
C23 C24 1.528(9)
C23 C29 1.537(9)
C24 H19A 0.9600
C24 H19B 0.9600
C24 H19C 0.9600
C25 N5 1.368(9)
C25 C26 1.367(10)
C25 H20 0.9300
C26 C27 1.390(11)
C26 H21 0.9300
C27 C28 1.373(12)
C27 H22 0.9300
C28 C29 1.390(10)
C28 H23 0.9300
C29 N5 1.350(9)
C30 N6 1.131(9)
C30 C31 1.463(11)
C31 H45A 0.9600
C31 H45B 0.9600
C31 H45C 0.9600
C32 N7 1.342(8)
C32 C33 1.360(9)
C32 C42 1.521(8)
C33 C34 1.399(9)
C33 H303 0.9300
C34 C35 1.388(9)
C34 H302 0.9300
C35 C36 1.385(9)
C35 H301 0.9300
C36 N7 1.368(8)
C36 C54 1.518(8)
C37 N8 1.324(8)
C37 C38 1.392(9)
C37 H402 0.9300
C38 C39 1.378(10)
C38 H403 0.9300
C39 C40 1.361(10)
C39 H404 0.9300
C40 C41 1.381(9)
C40 H405 0.9300
C41 N8 1.369(8)
C41 C42 1.532(8)
C42 C48 1.513(8)
C42 C43 1.545(8)
C43 H40A 0.9600
C43 H40B 0.9600
C43 H40C 0.9600
C44 N9 1.351(8)
C44 C45 1.433(10)
C44 H31 0.9300
C45 C46 1.357(11)
C45 H32 0.9300
C46 C47 1.387(11)
C46 H33 0.9300
C47 C48 1.421(9)
C47 H34 0.9300
C48 N9 1.349(8)
C49 N10 1.343(8)
C49 C50 1.402(9)
C49 H38 0.9300
C50 C51 1.352(10)
C50 H39 0.9300
C51 C52 1.385(10)
C51 H40 0.9300
C52 C53 1.389(9)
C52 H41 0.9300
C53 N10 1.365(8)
C53 C54 1.513(8)
C54 C60 1.535(9)
C54 C55 1.545(8)
C55 H37A 0.9600
C55 H37B 0.9600
C55 H37C 0.9600
C56 N11 1.353(8)
C56 C57 1.359(9)
C56 H42 0.9300
C57 C58 1.388(10)
C57 H43 0.9300
C58 C59 1.379(10)
C58 H44 0.9300
C59 C60 1.365(9)
C59 H45 0.9300
C60 N11 1.357(8)
C61 N12 1.135(9)
C61 C62 1.450(10)
C62 H62A 0.9600
C62 H62B 0.9600
C62 H62C 0.9600
C64 F12 1.320(10)
C64 F14 1.340(9)
C64 F13 1.346(10)
C64 S2 1.794(8)
C65 F16 1.283(15)
C65 F15 1.36(3)
C65 F17 1.43(3)
C65 S3 1.803(16)
C67 N13 1.214(17)
C67 C68 1.55(2)
C68 H68A 0.9600
C68 H68B 0.9600
C68 H68C 0.9600
C69 N14 1.190(10)
C69 C70 1.369(9)
C70 H60A 0.9600
C70 H60B 0.9600
C70 H60C 0.9600
C71 N15 1.148(12)
C71 C72 1.433(14)
C72 H10A 0.9600
C72 H10B 0.9600
C72 H10C 0.9600
B1 F2 1.351(10)
B1 F4 1.358(10)
B1 F1 1.372(9)
B1 F3 1.377(10)
B2 F5 1.342(10)
B2 F8 1.379(10)
B2 F7 1.402(9)
B2 F6 1.408(9)
N1 Co1 1.939(5)
N2 Co1 1.974(6)
N3 Co1 1.974(6)
N4 Co1 1.990(6)
N5 Co1 1.974(5)
N6 Co1 1.923(6)
N7 Co2 1.939(5)
N8 Co2 1.974(5)
N9 Co2 1.975(5)
N10 Co2 1.987(5)
N11 Co2 1.976(5)
N12 Co2 1.920(6)
O1 S1 1.390(6)
O2 S1 1.368(6)
O3 S1 1.358(7)
O4 S2 1.449(5)
O5 S2 1.438(6)
O6 S2 1.450(6)
O7 S3 1.454(8)
O8 S3 1.439(6)
O9 S3 1.422(8)
O10 S4 1.433(6)
O11 S4 1.255(12)
O12 S4 1.440(12)
O12 C66A 1.91(3)
F9 C63 1.413(13)
F10 C63 1.215(12)
F11 C63 1.408(12)
S1 C63 1.726(9)
S4 C66A 1.80(2)
S4 C66 1.713(19)
F18 C66 1.316(18)
F19 C66 1.435(18)
F20 C66 1.513(14)
C66A F19A 1.354(19)
C66A F18A 1.404(16)
C66A F20A 1.505(17)
