#------------------------------------------------------------------------------
#$Date: 2016-02-18 17:37:37 +0200 (Thu, 18 Feb 2016) $
#$Revision: 176729 $
#$URL: svn://www.crystallography.net/cod/cif/1/51/68/1516802.cif $
#------------------------------------------------------------------------------
#
# This file is available in the Crystallography Open Database (COD),
# http://www.crystallography.net/
#
# All data on this site have been placed in the public domain by the
# contributors.
#
data_1516802
loop_
_publ_author_name
'Minkov, Vasily S.'
'Boldyreva, Elena V.'
_publ_section_title
;
 Contribution of Weak S-H&#x00B7;&#x00B7;&#x00B7;O Hydrogen Bonds to the
 Side Chain Motions in d,l-Homocysteine on Cooling.
;
_journal_issue                   29
_journal_name_full               'The journal of physical chemistry. B'
_journal_page_first              8513
_journal_page_last               8523
_journal_paper_doi               10.1021/jp503154x
_journal_volume                  118
_journal_year                    2014
_chemical_formula_moiety         'C4 H9 N O2 S'
_chemical_formula_sum            'C4 H9 N O2 S'
_chemical_formula_weight         135.19
_chemical_name_common            DL-homocysteine
_chemical_name_systematic
; 
 ? 
;
_space_group_IT_number           2
_symmetry_cell_setting           triclinic
_symmetry_space_group_name_Hall  '-P 1'
_symmetry_space_group_name_H-M   'P -1'
_atom_sites_solution_hydrogens   geom
_atom_sites_solution_primary     direct
_atom_sites_solution_secondary   difmap
_audit_creation_method           SHELXL-97
_cell_angle_alpha                102.817(9)
_cell_angle_beta                 91.102(9)
_cell_angle_gamma                107.100(9)
_cell_formula_units_Z            2
_cell_length_a                   5.1897(6)
_cell_length_b                   5.5033(6)
_cell_length_c                   11.3966(13)
_cell_measurement_reflns_used    5943
_cell_measurement_temperature    255(2)
_cell_measurement_theta_max      29.53
_cell_measurement_theta_min      1.84
_cell_volume                     302.10(6)
_computing_structure_refinement  'SHELXL-97 (Sheldrick, 1997)'
_computing_structure_solution    'SHELXS-97 (Sheldrick, 1990)'
_diffrn_ambient_temperature      255(2)
_diffrn_detector                 'image plate (34 cm diameter)'
_diffrn_detector_area_resol_mean 6.67
_diffrn_detector_type            STOE
_diffrn_measured_fraction_theta_full 0.998
_diffrn_measured_fraction_theta_max 0.998
_diffrn_measurement_device       '2-circle goniometer'
_diffrn_measurement_device_type  'STOE IPDS 2'
_diffrn_measurement_method       'rotation method'
_diffrn_radiation_monochromator  'plane graphite'
_diffrn_radiation_source         'fine-focus sealed tube'
_diffrn_radiation_type           MoK\a
_diffrn_radiation_wavelength     0.71073
_diffrn_reflns_av_R_equivalents  0.0359
_diffrn_reflns_av_sigmaI/netI    0.0309
_diffrn_reflns_limit_h_max       7
_diffrn_reflns_limit_h_min       -7
_diffrn_reflns_limit_k_max       7
_diffrn_reflns_limit_k_min       -7
_diffrn_reflns_limit_l_max       14
_diffrn_reflns_limit_l_min       -15
_diffrn_reflns_number            3834
_diffrn_reflns_theta_full        29.14
_diffrn_reflns_theta_max         29.14
_diffrn_reflns_theta_min         1.84
_exptl_absorpt_coefficient_mu    0.442
_exptl_absorpt_correction_T_max  0.9571
_exptl_absorpt_correction_T_min  0.7589
_exptl_absorpt_correction_type   numerical
_exptl_crystal_colour            colorless
_exptl_crystal_density_diffrn    1.486
_exptl_crystal_density_method    'not measured'
_exptl_crystal_description       plate
_exptl_crystal_F_000             144
_exptl_crystal_size_max          0.66
_exptl_crystal_size_mid          0.41
_exptl_crystal_size_min          0.10
_refine_diff_density_max         0.347
_refine_diff_density_min         -0.416
_refine_diff_density_rms         0.061
_refine_ls_extinction_method     none
_refine_ls_goodness_of_fit_ref   1.089
_refine_ls_hydrogen_treatment    refxyz
_refine_ls_matrix_type           full
_refine_ls_number_parameters     100
_refine_ls_number_reflns         1625
_refine_ls_number_restraints     0
_refine_ls_restrained_S_all      1.089
_refine_ls_R_factor_all          0.0458
_refine_ls_R_factor_gt           0.0378
_refine_ls_shift/su_max          0.000
_refine_ls_shift/su_mean         0.000
_refine_ls_structure_factor_coef Fsqd
_refine_ls_weighting_details
'calc w=1/[\s^2^(Fo^2^)+(0.0506P)^2^+0.0758P] where P=(Fo^2^+2Fc^2^)/3'
_refine_ls_weighting_scheme      calc
_refine_ls_wR_factor_gt          0.0979
_refine_ls_wR_factor_ref         0.1010
_reflns_number_gt                1378
_reflns_number_total             1625
_reflns_threshold_expression     >2sigma(I)
_cod_data_source_file            jp503154x_si_001.cif
_cod_data_source_block           DL-homocysteine-255K
_cod_depositor_comments
'Adding full bibliography for 1516800--1516810.cif.'
_cod_database_code               1516802
loop_
_symmetry_equiv_pos_as_xyz
'x, y, z'
'-x, -y, -z'
loop_
_atom_site_label
_atom_site_type_symbol
_atom_site_fract_x
_atom_site_fract_y
_atom_site_fract_z
_atom_site_U_iso_or_equiv
_atom_site_adp_type
_atom_site_occupancy
_atom_site_symmetry_multiplicity
_atom_site_calc_flag
S1 S 1.20408(9) 0.88466(10) 0.11900(4) 0.04371(17) Uani 1 1 d
H1S H 1.274(5) 1.019(5) 0.223(2) 0.052 Uiso 1 1 d
O1 O 0.6640(2) 0.1967(2) 0.39049(10) 0.0303(3) Uani 1 1 d
O2 O 1.1113(2) 0.3182(2) 0.37256(10) 0.0296(2) Uani 1 1 d
N1 N 0.6576(3) 0.6967(2) 0.39921(12) 0.0254(3) Uani 1 1 d
H3N H 0.697(4) 0.722(4) 0.4776(19) 0.030 Uiso 1 1 d
H2N H 0.658(4) 0.853(4) 0.3871(17) 0.030 Uiso 1 1 d
H1N H 0.492(4) 0.589(4) 0.3814(17) 0.030 Uiso 1 1 d
C4 C 0.8462(3) 0.7477(3) 0.13207(15) 0.0313(3) Uani 1 1 d
H41 H 0.772(4) 0.683(4) 0.0456(19) 0.038 Uiso 1 1 d
H42 H 0.784(4) 0.892(4) 0.1739(18) 0.038 Uiso 1 1 d
C1 C 0.8806(3) 0.3502(3) 0.36914(12) 0.0224(3) Uani 1 1 d
C3 C 0.7789(3) 0.5199(3) 0.19326(14) 0.0299(3) Uani 1 1 d
H31 H 0.872(4) 0.396(4) 0.1553(18) 0.036 Uiso 1 1 d
H32 H 0.589(4) 0.431(4) 0.1775(18) 0.036 Uiso 1 1 d
C2 C 0.8600(3) 0.5936(3) 0.32978(13) 0.0228(3) Uani 1 1 d
H21 H 1.028(4) 0.722(4) 0.3480(16) 0.027 Uiso 1 1 d
loop_
_atom_site_aniso_label
_atom_site_aniso_U_11
_atom_site_aniso_U_22
_atom_site_aniso_U_33
_atom_site_aniso_U_23
_atom_site_aniso_U_13
_atom_site_aniso_U_12
S1 0.0336(2) 0.0488(3) 0.0413(3) 0.01072(19) 0.01074(17) 0.00097(19)
O1 0.0285(5) 0.0215(5) 0.0458(6) 0.0142(5) 0.0090(4) 0.0103(4)
O2 0.0253(5) 0.0301(6) 0.0375(6) 0.0085(4) 0.0026(4) 0.0143(4)
N1 0.0270(6) 0.0200(6) 0.0339(7) 0.0109(5) 0.0079(5) 0.0107(5)
C4 0.0308(7) 0.0327(8) 0.0327(8) 0.0138(6) 0.0031(6) 0.0086(6)
C1 0.0251(6) 0.0201(6) 0.0240(6) 0.0047(5) 0.0025(5) 0.0102(5)
C3 0.0334(7) 0.0242(7) 0.0298(7) 0.0077(6) 0.0012(6) 0.0046(6)
C2 0.0215(6) 0.0194(6) 0.0292(7) 0.0080(5) 0.0041(5) 0.0071(5)
loop_
_atom_type_symbol
_atom_type_description
_atom_type_scat_dispersion_real
_atom_type_scat_dispersion_imag
_atom_type_scat_source
C C 0.0033 0.0016 'International Tables Vol C Tables 4.2.6.8 and 6.1.1.4'
H H 0.0000 0.0000 'International Tables Vol C Tables 4.2.6.8 and 6.1.1.4'
O O 0.0106 0.0060 'International Tables Vol C Tables 4.2.6.8 and 6.1.1.4'
N N 0.0061 0.0033 'International Tables Vol C Tables 4.2.6.8 and 6.1.1.4'
S S 0.1246 0.1234 'International Tables Vol C Tables 4.2.6.8 and 6.1.1.4'
loop_
_geom_angle_atom_site_label_1
_geom_angle_atom_site_label_2
_geom_angle_atom_site_label_3
_geom_angle
C4 S1 H1S 99.2(11)
C2 N1 H3N 110.3(12)
C2 N1 H2N 112.2(12)
H3N N1 H2N 106.1(18)
C2 N1 H1N 112.6(13)
H3N N1 H1N 107.3(18)
H2N N1 H1N 108.1(18)
C3 C4 S1 113.95(11)
C3 C4 H41 109.4(12)
S1 C4 H41 101.7(12)
C3 C4 H42 112.6(12)
S1 C4 H42 106.6(12)
H41 C4 H42 112.0(17)
O1 C1 O2 126.20(13)
O1 C1 C2 116.82(11)
O2 C1 C2 116.92(12)
C4 C3 C2 115.35(13)
C4 C3 H31 108.2(12)
C2 C3 H31 107.7(12)
C4 C3 H32 108.2(12)
C2 C3 H32 109.9(12)
H31 C3 H32 107.2(17)
N1 C2 C3 111.26(12)
N1 C2 C1 109.40(11)
C3 C2 C1 109.02(11)
N1 C2 H21 108.3(11)
C3 C2 H21 110.2(11)
C1 C2 H21 108.5(11)
loop_
_geom_bond_atom_site_label_1
_geom_bond_atom_site_label_2
_geom_bond_distance
S1 C4 1.8103(17)
S1 H1S 1.23(2)
O1 C1 1.2565(17)
O2 C1 1.2612(16)
N1 C2 1.4946(18)
N1 H3N 0.88(2)
N1 H2N 0.90(2)
N1 H1N 0.88(2)
C4 C3 1.523(2)
C4 H41 1.00(2)
C4 H42 0.98(2)
C1 C2 1.5352(18)
C3 C2 1.535(2)
C3 H31 0.98(2)
C3 H32 0.95(2)
C2 H21 0.932(19)
loop_
_geom_hbond_atom_site_label_D
_geom_hbond_atom_site_label_H
_geom_hbond_atom_site_label_A
_geom_hbond_distance_DH
_geom_hbond_distance_HA
_geom_hbond_distance_DA
_geom_hbond_angle_DHA
_geom_hbond_site_symmetry_A
N1 H1N O2 0.88(2) 2.08(2) 2.9468(17) 168.5(18) 1_455
N1 H2N O1 0.90(2) 1.87(2) 2.7659(16) 170.3(18) 1_565
N1 H3N O2 0.88(2) 2.05(2) 2.8710(17) 154.9(17) 2_766
N1 H3N O1 0.88(2) 2.505(19) 2.9970(16) 115.8(15) 2_666
S1 H1S O1 1.23(2) 2.56(2) 3.6288(14) 143.9(15) 1_665
S1 H1S O2 1.23(2) 2.44(2) 3.4564(12) 137.7(15) 1_565
loop_
_geom_torsion_atom_site_label_1
_geom_torsion_atom_site_label_2
_geom_torsion_atom_site_label_3
_geom_torsion_atom_site_label_4
_geom_torsion
S1 C4 C3 C2 71.64(16)
C4 C3 C2 N1 80.31(16)
C4 C3 C2 C1 -158.95(13)
O1 C1 C2 N1 38.26(17)
O2 C1 C2 N1 -144.34(13)
O1 C1 C2 C3 -83.61(15)
O2 C1 C2 C3 93.79(15)
