#------------------------------------------------------------------------------
#$Date: 2016-02-14 06:40:26 +0200 (Sun, 14 Feb 2016) $
#$Revision: 176432 $
#$URL: svn://www.crystallography.net/cod/cif/1/51/78/1517854.cif $
#------------------------------------------------------------------------------
#
# This file is available in the Crystallography Open Database (COD),
# http://www.crystallography.net/
#
# All data on this site have been placed in the public domain by the
# contributors.
#
data_1517854
loop_
_publ_author_name
'Franke, Sebastian M.'
'Rosenzweig, Michael W.'
'Heinemann, Frank W.'
'Meyer, Karsten'
_publ_section_title
;
 Reactivity of uranium(iii) with H2E (E = S, Se, Te): synthesis of a
 series of mononuclear and dinuclear uranium(iv) hydrochalcogenido
 complexes
;
_journal_issue                   1
_journal_name_full               'Chem. Sci.'
_journal_page_first              275
_journal_paper_doi               10.1039/C4SC02602K
_journal_volume                  6
_journal_year                    2015
_chemical_formula_moiety         'C58 H77 N O5 S U, C4 H10 O2'
_chemical_formula_sum            'C62 H87 N O7 S U'
_chemical_formula_weight         1228.42
_chemical_name_systematic
; 
 ? 
;
_space_group_IT_number           2
_symmetry_cell_setting           triclinic
_symmetry_space_group_name_Hall  '-P 1'
_symmetry_space_group_name_H-M   'P -1'
_atom_sites_solution_hydrogens   mixed
_atom_sites_solution_primary     direct
_atom_sites_solution_secondary   difmap
_audit_creation_method           SHELXL-97
_cell_angle_alpha                112.831(3)
_cell_angle_beta                 96.488(4)
_cell_angle_gamma                108.933(2)
_cell_formula_units_Z            2
_cell_length_a                   14.4228(2)
_cell_length_b                   14.8678(5)
_cell_length_c                   15.4212(9)
_cell_measurement_reflns_used    339
_cell_measurement_temperature    150(2)
_cell_measurement_theta_max      20.00
_cell_measurement_theta_min      6.00
_cell_volume                     2772.5(2)
_computing_cell_refinement       'EVALCCD (Duisenberg, 2003)'
_computing_data_collection       'COLLECT (Bruker-Nonius, 2002)'
_computing_data_reduction        'EVALCCD (Duisenberg, 2003)'
_computing_molecular_graphics    'SHELXTL 6.12 (Bruker AXS, 2002)'
_computing_publication_material  'SHELXTL 6.12 (Bruker AXS, 2002)'
_computing_structure_refinement  'SHELXTL 6.12 (Bruker AXS, 2002)'
_computing_structure_solution    'SHELXTL 6.12 (Bruker AXS, 2002)'
_diffrn_ambient_temperature      150(2)
_diffrn_detector_area_resol_mean 9
_diffrn_measured_fraction_theta_full 0.997
_diffrn_measured_fraction_theta_max 0.997
_diffrn_measurement_device_type  'Bruker-Nonius KappaCCD'
_diffrn_measurement_method
;
 \f- and \w-rotations with 2.00 \% and 60 sec per frame
;
_diffrn_radiation_monochromator  graphite
_diffrn_radiation_source         'fine-focus sealed tube'
_diffrn_radiation_type           MoK\a
_diffrn_radiation_wavelength     0.71073
_diffrn_reflns_av_R_equivalents  0.0318
_diffrn_reflns_av_sigmaI/netI    0.0181
_diffrn_reflns_limit_h_max       19
_diffrn_reflns_limit_h_min       -19
_diffrn_reflns_limit_k_max       20
_diffrn_reflns_limit_k_min       -20
_diffrn_reflns_limit_l_max       20
_diffrn_reflns_limit_l_min       -20
_diffrn_reflns_number            112535
_diffrn_reflns_theta_full        28.70
_diffrn_reflns_theta_max         28.70
_diffrn_reflns_theta_min         3.80
_exptl_absorpt_coefficient_mu    3.019
_exptl_absorpt_correction_T_max  0.746
_exptl_absorpt_correction_T_min  0.554
_exptl_absorpt_correction_type   multi-scan
_exptl_absorpt_process_details   'SADABS, Bruker-AXS, 2002'
_exptl_crystal_colour            green
_exptl_crystal_density_diffrn    1.471
_exptl_crystal_density_method    'not measured'
_exptl_crystal_description       prism
_exptl_crystal_F_000             1260
_exptl_crystal_size_max          0.30
_exptl_crystal_size_mid          0.28
_exptl_crystal_size_min          0.11
_refine_diff_density_max         2.098
_refine_diff_density_min         -1.042
_refine_diff_density_rms         0.084
_refine_ls_extinction_method     none
_refine_ls_goodness_of_fit_ref   1.153
_refine_ls_hydrogen_treatment    constr
_refine_ls_matrix_type           full
_refine_ls_number_parameters     656
_refine_ls_number_reflns         14282
_refine_ls_number_restraints     0
_refine_ls_restrained_S_all      1.153
_refine_ls_R_factor_all          0.0261
_refine_ls_R_factor_gt           0.0189
_refine_ls_shift/su_max          0.003
_refine_ls_shift/su_mean         0.000
_refine_ls_structure_factor_coef Fsqd
_refine_ls_weighting_details
'calc w=1/[\s^2^(Fo^2^)+(0.0170P)^2^+3.1875P] where P=(Fo^2^+2Fc^2^)/3'
_refine_ls_weighting_scheme      calc
_refine_ls_wR_factor_gt          0.0450
_refine_ls_wR_factor_ref         0.0492
_reflns_number_gt                13009
_reflns_number_total             14282
_reflns_threshold_expression     >2sigma(I)
_iucr_refine_instructions_details
;

TITL SF1313 in P-1, FRANKE/MEYER, [U((Ad_ArO)3N)(DME)(SH)] * DME
CELL 0.71073  14.4230  14.8680  15.4210 112.8300  96.4880 108.9331
ZERR    2      0.0002   0.0005   0.0009   0.0029   0.0037   0.0020
LATT 1
SFAC C  H  N  O  S  U
DISP U   -9.67670   9.66460
DISP S    0.12460   0.12340
DISP O    0.01060   0.00600
DISP N    0.00610   0.00330
DISP H    0.00000   0.00000
DISP C    0.00330   0.00160
UNIT 124  174  2  14  2  2
SHEL 5.4 0.74
L.S. 8
ACTA
TEMP -123
SIZE 0.30 0.28 0.11
BOND .5 $H
HTAB
CONF
MPLA 3 O1 O2 O3 U1 N1
WPDB -1
LIST 4
FMAP 2
PLAN 20
WGHT    0.017000    3.187500
FVAR       0.38587
U1    6    0.106763    0.179368    0.319961    11.00000    0.01065    0.01090 =
         0.00961    0.00291    0.00220    0.00424
S1    5    0.026642    0.167567    0.140167    11.00000    0.03171    0.03859 =
         0.01921    0.01367    0.00062    0.01262
AFIX   3
H1S   2   -0.013754    0.209703    0.119585    11.00000   -1.50000
AFIX   0
O1    4    0.250188    0.291401    0.325929    11.00000    0.01439    0.01432 =
         0.01281    0.00368    0.00371    0.00135
O2    4    0.160037    0.109601    0.407166    11.00000    0.01891    0.01627 =
         0.01421    0.00477    0.00095    0.00836
O3    4   -0.008967    0.237428    0.357957    11.00000    0.01426    0.01841 =
         0.01406    0.00274    0.00366    0.00841
O4    4    0.098680    0.001085    0.184744    11.00000    0.02028    0.01756 =
         0.01553    0.00193    0.00304    0.00655
O5    4   -0.046201    0.006767    0.282201    11.00000    0.01770    0.01552 =
         0.02273    0.00834    0.00492    0.00473
N1    3    0.180729    0.326155    0.502098    11.00000    0.01186    0.01312 =
         0.01277    0.00603    0.00402    0.00516
C1    1    0.294025    0.378795    0.529114    11.00000    0.01261    0.01750 =
         0.01286    0.00556    0.00225    0.00534
AFIX  23
H1A   2    0.321331    0.323067    0.514952    11.00000   -1.20000
H1B   2    0.319052    0.425605    0.600538    11.00000   -1.20000
AFIX   0
C2    1    0.336750    0.444192    0.477926    11.00000    0.01184    0.01636 =
         0.01340    0.00554    0.00311    0.00605
C3    1    0.320083    0.394637    0.375735    11.00000    0.01092    0.01358 =
         0.01432    0.00411    0.00292    0.00398
C4    1    0.375376    0.451726    0.330030    11.00000    0.01299    0.01643 =
         0.01327    0.00626    0.00455    0.00614
C5    1    0.437577    0.559746    0.389338    11.00000    0.01357    0.01683 =
         0.02112    0.00919    0.00703    0.00576
AFIX  43
H5A   2    0.473663    0.599820    0.359531    11.00000   -1.20000
AFIX   0
C6    1    0.449606    0.611843    0.489502    11.00000    0.01290    0.01290 =
         0.02034    0.00429    0.00463    0.00427
C7    1    0.400032    0.551688    0.533066    11.00000    0.01279    0.01674 =
         0.01490    0.00352    0.00338    0.00588
AFIX  43
H7A   2    0.409458    0.584475    0.601779    11.00000   -1.20000
AFIX   0
C8    1    0.150450    0.274004    0.566415    11.00000    0.01863    0.01765 =
         0.01470    0.00845    0.00765    0.00911
AFIX  23
H8A   2    0.077944    0.223625    0.538013    11.00000   -1.20000
H8B   2    0.157279    0.329178    0.631681    11.00000   -1.20000
AFIX   0
C9    1    0.214348    0.214731    0.578085    11.00000    0.01642    0.01662 =
         0.01650    0.00935    0.00581    0.00738
C10   1    0.215766    0.130806    0.494829    11.00000    0.01624    0.01398 =
         0.01456    0.00745    0.00327    0.00534
C11   1    0.276800    0.075081    0.505196    11.00000    0.01412    0.01505 =
         0.01684    0.00801    0.00443    0.00550
C12   1    0.337702    0.112496    0.599493    11.00000    0.01859    0.02306 =
         0.01881    0.01216    0.00477    0.01046
AFIX  43
H12A  2    0.379962    0.077338    0.607832    11.00000   -1.20000
AFIX   0
C13   1    0.340073    0.198051    0.681724    11.00000    0.01975    0.02206 =
         0.01497    0.01042    0.00318    0.00754
C14   1    0.276508    0.248117    0.670191    11.00000    0.02405    0.01750 =
         0.01427    0.00796    0.00671    0.00874
AFIX  43
H14A  2    0.275441    0.305503    0.725503    11.00000   -1.20000
AFIX   0
C15   1    0.141368    0.411256    0.521436    11.00000    0.01459    0.01335 =
         0.01701    0.00575    0.00458    0.00681
AFIX  23
H15A  2    0.157094    0.441241    0.475060    11.00000   -1.20000
H15B  2    0.179646    0.469145    0.588146    11.00000   -1.20000
AFIX   0
C16   1    0.029110    0.379459    0.513718    11.00000    0.01423    0.01407 =
         0.01645    0.00739    0.00491    0.00680
C17   1   -0.043629    0.297951    0.426398    11.00000    0.01666    0.01443 =
         0.01445    0.00634    0.00592    0.00839
C18   1   -0.147316    0.282954    0.411120    11.00000    0.01482    0.01459 =
         0.01595    0.00661    0.00478    0.00677
C19   1   -0.172942    0.347662    0.490379    11.00000    0.01556    0.01749 =
         0.01879    0.00835    0.00687    0.00887
AFIX  43
H19A  2   -0.242270    0.338193    0.482612    11.00000   -1.20000
AFIX   0
C20   1   -0.102779    0.424852    0.579646    11.00000    0.01940    0.01580 =
         0.01664    0.00707    0.00780    0.00923
C21   1   -0.001067    0.440974    0.589345    11.00000    0.01853    0.01391 =
         0.01464    0.00416    0.00394    0.00649
AFIX  43
H21A  2    0.048689    0.494887    0.648591    11.00000   -1.20000
AFIX   0
C22   1    0.369335    0.400732    0.220890    11.00000    0.01440    0.01830 =
         0.01338    0.00714    0.00510    0.00607
C23   1    0.443361    0.421268    0.084181    11.00000    0.02647    0.03587 =
         0.02103    0.01706    0.01268    0.01148
AFIX  13
H23A  2    0.497262    0.470578    0.069060    11.00000   -1.20000
AFIX   0
C24   1    0.375958    0.242586    0.080893    11.00000    0.02602    0.02707 =
         0.01489    0.00681    0.00701    0.01531
AFIX  13
H24A  2    0.385051    0.174341    0.062954    11.00000   -1.20000
AFIX   0
C25   1    0.255501    0.323512    0.049730    11.00000    0.02246    0.03880 =
         0.01505    0.01045    0.00274    0.01658
AFIX  13
H25A  2    0.186698    0.307841    0.011313    11.00000   -1.20000
AFIX   0
C26   1    0.451103    0.474257    0.193978    11.00000    0.02201    0.02535 =
         0.02036    0.01293    0.00933    0.00698
AFIX  23
H26A  2    0.442380    0.541910    0.211315    11.00000   -1.20000
H26B  2    0.519634    0.491250    0.232298    11.00000   -1.20000
AFIX   0
C27   1    0.264065    0.376743    0.159634    11.00000    0.01861    0.02797 =
         0.01755    0.01003    0.00490    0.01220
AFIX  23
H27A  2    0.209742    0.329050    0.174753    11.00000   -1.20000
H27B  2    0.254459    0.443964    0.177079    11.00000   -1.20000
AFIX   0
C28   1    0.458112    0.317195    0.056982    11.00000    0.02614    0.04227 =
         0.01766    0.01401    0.01183    0.01870
AFIX  23
H28A  2    0.453206    0.282966   -0.013674    11.00000   -1.20000
H28B  2    0.526458    0.332303    0.094211    11.00000   -1.20000
AFIX   0
C29   1    0.270108    0.219175    0.022965    11.00000    0.02670    0.03155 =
         0.01287    0.00366    0.00338    0.01167
AFIX  23
H29A  2    0.216921    0.170480    0.038198    11.00000   -1.20000
H29B  2    0.263206    0.183747   -0.048040    11.00000   -1.20000
AFIX   0
C30   1    0.385533    0.295921    0.190973    11.00000    0.02139    0.02172 =
         0.01388    0.00743    0.00585    0.01057
AFIX  23
H30A  2    0.453966    0.311515    0.228410    11.00000   -1.20000
H30B  2    0.334199    0.246556    0.207140    11.00000   -1.20000
AFIX   0
C31   1    0.337901    0.398145    0.025668    11.00000    0.04096    0.04317 =
         0.01908    0.01834    0.01185    0.02484
AFIX  23
H31A  2    0.328920    0.465619    0.042591    11.00000   -1.20000
H31B  2    0.331939    0.364446   -0.045252    11.00000   -1.20000
AFIX   0
C32   1    0.517542    0.728844    0.548835    11.00000    0.02015    0.01389 =
         0.02699    0.00284    0.00859    0.00213
AFIX 137
H32A  2    0.569718    0.738443    0.602071    11.00000   -1.50000
H32B  2    0.476495    0.768136    0.576316    11.00000   -1.50000
H32C  2    0.550509    0.755895    0.506631    11.00000   -1.50000
AFIX   0
C33   1    0.276053   -0.022961    0.419365    11.00000    0.01907    0.01611 =
         0.01712    0.00791    0.00557    0.00944
C34   1    0.353774   -0.160028    0.363955    11.00000    0.06697    0.04062 =
         0.03346    0.01585    0.01448    0.04317
AFIX  13
H34A  2    0.406006   -0.182988    0.386109    11.00000   -1.20000
AFIX   0
C35   1    0.297280   -0.098634    0.247866    11.00000    0.03525    0.02362 =
         0.02254    0.00977    0.01445    0.01632
AFIX  13
H35A  2    0.312453   -0.081094    0.193261    11.00000   -1.20000
AFIX   0
C36   1    0.168150   -0.214156    0.296300    11.00000    0.04262    0.01781 =
         0.04317   -0.00091    0.02199   -0.00298
AFIX  13
H36A  2    0.099201   -0.273438    0.273130    11.00000   -1.20000
AFIX   0
C37   1    0.356020   -0.060955    0.450221    11.00000    0.04658    0.03682 =
         0.02745    0.01288    0.00746    0.03145
AFIX  23
H37A  2    0.424729   -0.002758    0.474136    11.00000   -1.20000
H37B  2    0.342189   -0.078328    0.504529    11.00000   -1.20000
AFIX   0
C38   1    0.170816   -0.114969    0.382464    11.00000    0.02983    0.01972 =
         0.03351    0.00243    0.01690    0.00086
AFIX  23
H38A  2    0.118192   -0.092946    0.361118    11.00000   -1.20000
H38B  2    0.155243   -0.132506    0.436310    11.00000   -1.20000
AFIX   0
C39   1    0.376368   -0.134363    0.280491    11.00000    0.03546    0.03619 =
         0.03616    0.01077    0.01591    0.02412
AFIX  23
H39A  2    0.374394   -0.198272    0.225123    11.00000   -1.20000
H39B  2    0.445323   -0.077068    0.302329    11.00000   -1.20000
AFIX   0
C40   1    0.191063   -0.187200    0.212349    11.00000    0.03555    0.02701 =
         0.02508   -0.00345    0.00345    0.01341
AFIX  23
H40A  2    0.187525   -0.251223    0.156019    11.00000   -1.20000
H40B  2    0.139856   -0.163716    0.190769    11.00000   -1.20000
AFIX   0
C41   1    0.301837    0.001117    0.334032    11.00000    0.02958    0.01875 =
         0.02291    0.00995    0.01280    0.01092
AFIX  23
H41A  2    0.252867    0.026703    0.311945    11.00000   -1.20000
H41B  2    0.371013    0.058342    0.357042    11.00000   -1.20000
AFIX   0
C42   1    0.249165   -0.248881    0.329423    11.00000    0.10999    0.02411 =
         0.04665    0.02229    0.04638    0.03651
AFIX  23
H42A  2    0.234859   -0.266978    0.383254    11.00000   -1.20000
H42B  2    0.246861   -0.313198    0.274316    11.00000   -1.20000
AFIX   0
C43   1    0.409320    0.234823    0.780568    11.00000    0.04129    0.03731 =
         0.01599    0.00940    0.00093    0.02361
AFIX 137
H43A  2    0.477764    0.241103    0.774421    11.00000   -1.50000
H43B  2    0.382520    0.182926    0.805390    11.00000   -1.50000
H43C  2    0.412671    0.304333    0.826117    11.00000   -1.50000
AFIX   0
C44   1   -0.226745    0.209675    0.311090    11.00000    0.01348    0.01562 =
         0.01699    0.00416    0.00285    0.00719
C45   1   -0.315095    0.024313    0.167497    11.00000    0.02214    0.01616 =
         0.02715    0.00125    0.00214    0.00526
AFIX  13
H45A  2   -0.319559   -0.050350    0.141824    11.00000   -1.20000
AFIX   0
C46   1   -0.273201    0.183922    0.136563    11.00000    0.03120    0.03076 =
         0.01917    0.01011   -0.00241    0.00574
AFIX  13
H46A  2   -0.251083    0.213374    0.090501    11.00000   -1.20000
AFIX   0
C47   1   -0.412267    0.138331    0.214899    11.00000    0.01635    0.03730 =
         0.02923   -0.00016   -0.00257    0.01307
AFIX  13
H47A  2   -0.480363    0.138975    0.221024    11.00000   -1.20000
AFIX   0
C48   1   -0.237317    0.092960    0.268842    11.00000    0.01975    0.01567 =
         0.02346    0.00687    0.00369    0.00694
AFIX  23
H48A  2   -0.170200    0.090960    0.263406    11.00000   -1.20000
H48B  2   -0.259417    0.063146    0.313965    11.00000   -1.20000
AFIX   0
C49   1   -0.333815    0.207244    0.316239    11.00000    0.01655    0.02989 =
         0.02332    0.00072    0.00223    0.01259
AFIX  23
H49A  2   -0.356441    0.178359    0.361818    11.00000   -1.20000
H49B  2   -0.330315    0.280854    0.342288    11.00000   -1.20000
AFIX   0
C50   1   -0.280458    0.069529    0.097353    11.00000    0.02351    0.02951 =
         0.01845    0.00015    0.00184    0.00606
AFIX  23
H50A  2   -0.329801    0.025025    0.031746    11.00000   -1.20000
H50B  2   -0.213141    0.068645    0.091183    11.00000   -1.20000
AFIX   0
C51   1   -0.378192    0.184173    0.145437    11.00000    0.03561    0.03421 =
         0.02989    0.00444   -0.01198    0.01698
AFIX  23
H51A  2   -0.374171    0.257937    0.170632    11.00000   -1.20000
H51B  2   -0.428379    0.140798    0.080242    11.00000   -1.20000
AFIX   0
C52   1   -0.195402    0.253435    0.237928    11.00000    0.02445    0.01962 =
         0.02057    0.00924    0.00051    0.00536
AFIX  23
H52A  2   -0.190798    0.327389    0.262830    11.00000   -1.20000
H52B  2   -0.127340    0.254853    0.232105    11.00000   -1.20000
AFIX   0
C53   1   -0.419991    0.023894    0.175316    11.00000    0.01787    0.02973 =
         0.03138    0.00463    0.00118    0.00256
AFIX  23
H53A  2   -0.470087   -0.020666    0.110120    11.00000   -1.20000
H53B  2   -0.443255   -0.006415    0.219803    11.00000   -1.20000
AFIX   0
C54   1   -0.135060    0.492070    0.662059    11.00000    0.02474    0.02241 =
         0.01910    0.00514    0.00947    0.01391
AFIX 137
H54A  2   -0.094001    0.567698    0.683334    11.00000   -1.50000
H54B  2   -0.124886    0.475393    0.717036    11.00000   -1.50000
H54C  2   -0.207243    0.476736    0.639286    11.00000   -1.50000
AFIX   0
C55   1    0.158259    0.003016    0.116043    11.00000    0.03385    0.02826 =
         0.02016    0.00666    0.01100    0.01613
AFIX 137
H55A  2    0.167340   -0.064016    0.088055    11.00000   -1.50000
H55B  2    0.225066    0.062730    0.149737    11.00000   -1.50000
H55C  2    0.122904    0.011648    0.063598    11.00000   -1.50000
AFIX   0
C56   1   -0.003434   -0.080020    0.137106    11.00000    0.02331    0.01783 =
         0.02197   -0.00214   -0.00254    0.00461
AFIX  23
H56A  2   -0.001799   -0.147780    0.091436    11.00000   -1.20000
H56B  2   -0.043775   -0.057875    0.099469    11.00000   -1.20000
AFIX   0
C57   1   -0.050254   -0.094400    0.215330    11.00000    0.02058    0.01328 =
         0.03321    0.00550    0.00069    0.00226
AFIX  23
H57A  2   -0.121869   -0.147144    0.185882    11.00000   -1.20000
H57B  2   -0.012244   -0.120750    0.250235    11.00000   -1.20000
AFIX   0
C58   1   -0.080498    0.002585    0.365562    11.00000    0.02173    0.02872 =
         0.03309    0.01967    0.00982    0.00636
AFIX 137
H58A  2   -0.149865   -0.052425    0.342973    11.00000   -1.50000
H58B  2   -0.080062    0.071916    0.407760    11.00000   -1.50000
H58C  2   -0.034834   -0.014572    0.402505    11.00000   -1.50000
AFIX   0
C101  1    0.743793    0.478402    0.140439    11.00000    0.05871    0.06339 =
         0.09453    0.03570    0.02425    0.02075
AFIX 137
H10A  2    0.690896    0.486299    0.173796    11.00000   -1.50000
H10B  2    0.772468    0.434007    0.157302    11.00000   -1.50000
H10C  2    0.713923    0.444518    0.069527    11.00000   -1.50000
AFIX   0
O102  4    0.822297    0.580549    0.170469    11.00000    0.06755    0.06179 =
         0.08277    0.01713    0.02326    0.02855
C103  1    0.888117    0.578278    0.109489    11.00000    0.05878    0.05196 =
         0.08462    0.03264    0.01424    0.02698
AFIX  23
H10D  2    0.932350    0.652529    0.125817    11.00000   -1.20000
H10E  2    0.846588    0.543870    0.040787    11.00000   -1.20000
AFIX   0
C104  1    0.954292    0.520756    0.117163    11.00000    0.05604    0.04514 =
         0.05539    0.01911    0.01200    0.01917
AFIX  23
H10F  2    1.017858    0.550208    0.100392    11.00000   -1.20000
H10G  2    0.972874    0.531159    0.185197    11.00000   -1.20000
AFIX   0
O104  4    0.902525    0.411633    0.053343    11.00000    0.06678    0.04826 =
         0.05489    0.01223    0.00217    0.02681
C106  1    0.956636    0.351318    0.067432    11.00000    0.08790    0.05575 =
         0.05729    0.02200    0.01383    0.04287
AFIX 137
H10H  2    0.919320    0.276193    0.019841    11.00000   -1.50000
H10I  2    0.963258    0.358044    0.133850    11.00000   -1.50000
H10J  2    1.024572    0.378207    0.058301    11.00000   -1.50000
 
HKLF 4
 
REM  SF1313 in P-1, FRANKE/MEYER, [U((Ad_ArO)3N)(DME)(SH)] * DME
REM R1 =  0.0189 for  13009 Fo > 4sig(Fo)  and  0.0261 for all  14282 data
REM    656 parameters refined using      0 restraints
 
END  
     
WGHT      0.0170      3.1792 
REM Highest difference peak  2.098,  deepest hole -1.042,  1-sigma level  0.084
Q1    1   0.6811  0.4624  0.0418  11.00000  0.05    2.10
Q2    1   0.0544  0.1775  0.1968  11.00000  0.05    0.80
Q3    1   0.6952  0.3675  0.0043  11.00000  0.05    0.50
Q4    1   0.2979 -0.1938  0.3606  11.00000  0.05    0.49
Q5    1   0.8390  0.5247  0.1183  11.00000  0.05    0.49
Q6    1   0.3619 -0.1673  0.3056  11.00000  0.05    0.47
Q7    1   0.4759  0.6650  0.5242  11.00000  0.05    0.46
Q8    1   0.3026  0.0935  0.5528  11.00000  0.05    0.45
Q9    1   0.1031  0.1696  0.3612  11.00000  0.05    0.45
Q10   1   0.3749  0.4972  0.4985  11.00000  0.05    0.45
Q11   1   0.3018 -0.1074  0.4522  11.00000  0.05    0.45
Q12   1   0.3350 -0.1191  0.2642  11.00000  0.05    0.44
Q13   1   0.2800  0.0305  0.4619  11.00000  0.05    0.44
Q14   1   0.7599  0.4758  0.2213  11.00000  0.05    0.44
Q15   1  -0.2548  0.2523  0.2347  11.00000  0.05    0.42
Q16   1   0.4250  0.5807  0.5083  11.00000  0.05    0.41
Q17   1   0.2367  0.1871  0.5375  11.00000  0.05    0.40
Q18   1   0.4435  0.5850  0.4410  11.00000  0.05    0.39
Q19   1   0.2814 -0.0073  0.3776  11.00000  0.05    0.39
Q20   1   0.2404  0.0962  0.5015  11.00000  0.05    0.39


;
_cod_data_source_file            c4sc02602k2.cif
_cod_data_source_block           sf1313
_cod_depositor_comments
'Adding full bibliography for 1517854--1517859.cif.'
_cod_original_cell_volume        2772.59(19)
_cod_original_sg_symbol_Hall     -P1
_cod_original_sg_symbol_H-M      P-1
_cod_database_code               1517854
loop_
_symmetry_equiv_pos_as_xyz
'x, y, z'
'-x, -y, -z'
loop_
_atom_site_label
_atom_site_type_symbol
_atom_site_fract_x
_atom_site_fract_y
_atom_site_fract_z
_atom_site_U_iso_or_equiv
_atom_site_adp_type
_atom_site_occupancy
_atom_site_symmetry_multiplicity
_atom_site_calc_flag
_atom_site_refinement_flags
U1 U 0.106763(5) 0.179368(5) 0.319961(5) 0.01107(2) Uani 1 1 d .
S1 S 0.02664(5) 0.16757(5) 0.14017(4) 0.03065(13) Uani 1 1 d .
H1S H -0.0138 0.2097 0.1196 0.046 Uiso 1 1 d R
O1 O 0.25019(10) 0.29140(11) 0.32593(10) 0.0159(3) Uani 1 1 d .
O2 O 0.16004(11) 0.10960(11) 0.40717(10) 0.0172(3) Uani 1 1 d .
O3 O -0.00897(10) 0.23743(11) 0.35796(10) 0.0167(3) Uani 1 1 d .
O4 O 0.09868(11) 0.00108(12) 0.18474(11) 0.0202(3) Uani 1 1 d .
O5 O -0.04620(11) 0.00677(12) 0.28220(11) 0.0194(3) Uani 1 1 d .
N1 N 0.18073(12) 0.32616(13) 0.50210(12) 0.0124(3) Uani 1 1 d .
C1 C 0.29402(14) 0.37879(16) 0.52911(14) 0.0151(4) Uani 1 1 d .
H1A H 0.3213 0.3231 0.5150 0.018 Uiso 1 1 calc R
H1B H 0.3191 0.4256 0.6005 0.018 Uiso 1 1 calc R
C2 C 0.33675(14) 0.44419(16) 0.47793(14) 0.0142(4) Uani 1 1 d .
C3 C 0.32008(14) 0.39464(15) 0.37573(14) 0.0140(4) Uani 1 1 d .
C4 C 0.37538(14) 0.45173(16) 0.33003(14) 0.0142(4) Uani 1 1 d .
C5 C 0.43758(15) 0.55975(16) 0.38934(15) 0.0168(4) Uani 1 1 d .
H5A H 0.4737 0.5998 0.3595 0.020 Uiso 1 1 calc R
C6 C 0.44961(15) 0.61184(16) 0.48950(15) 0.0167(4) Uani 1 1 d .
C7 C 0.40003(15) 0.55169(16) 0.53307(14) 0.0161(4) Uani 1 1 d .
H7A H 0.4095 0.5845 0.6018 0.019 Uiso 1 1 calc R
C8 C 0.15045(15) 0.27400(16) 0.56641(14) 0.0158(4) Uani 1 1 d .
H8A H 0.0779 0.2236 0.5380 0.019 Uiso 1 1 calc R
H8B H 0.1573 0.3292 0.6317 0.019 Uiso 1 1 calc R
C9 C 0.21435(15) 0.21473(16) 0.57809(14) 0.0155(4) Uani 1 1 d .
C10 C 0.21577(15) 0.13081(15) 0.49483(14) 0.0149(4) Uani 1 1 d .
C11 C 0.27680(15) 0.07508(16) 0.50520(14) 0.0151(4) Uani 1 1 d .
C12 C 0.33770(16) 0.11250(17) 0.59949(15) 0.0187(4) Uani 1 1 d .
H12A H 0.3800 0.0773 0.6078 0.022 Uiso 1 1 calc R
C13 C 0.34007(16) 0.19805(17) 0.68172(15) 0.0186(4) Uani 1 1 d .
C14 C 0.27651(16) 0.24812(16) 0.67019(15) 0.0181(4) Uani 1 1 d .
H14A H 0.2754 0.3055 0.7255 0.022 Uiso 1 1 calc R
C15 C 0.14137(15) 0.41126(15) 0.52144(15) 0.0150(4) Uani 1 1 d .
H15A H 0.1571 0.4412 0.4751 0.018 Uiso 1 1 calc R
H15B H 0.1796 0.4691 0.5881 0.018 Uiso 1 1 calc R
C16 C 0.02911(15) 0.37946(15) 0.51372(14) 0.0144(4) Uani 1 1 d .
C17 C -0.04363(15) 0.29795(15) 0.42640(14) 0.0145(4) Uani 1 1 d .
C18 C -0.14732(15) 0.28295(15) 0.41112(14) 0.0149(4) Uani 1 1 d .
C19 C -0.17294(15) 0.34766(16) 0.49038(15) 0.0164(4) Uani 1 1 d .
H19A H -0.2423 0.3382 0.4826 0.020 Uiso 1 1 calc R
C20 C -0.10278(16) 0.42485(16) 0.57965(15) 0.0165(4) Uani 1 1 d .
C21 C -0.00107(15) 0.44097(16) 0.58934(14) 0.0165(4) Uani 1 1 d .
H21A H 0.0487 0.4949 0.6486 0.020 Uiso 1 1 calc R
C22 C 0.36934(15) 0.40073(16) 0.22089(14) 0.0154(4) Uani 1 1 d .
C23 C 0.44336(18) 0.4213(2) 0.08418(17) 0.0261(5) Uani 1 1 d .
H23A H 0.4973 0.4706 0.0691 0.031 Uiso 1 1 calc R
C24 C 0.37596(17) 0.24259(18) 0.08089(15) 0.0221(4) Uani 1 1 d .
H24A H 0.3851 0.1743 0.0630 0.027 Uiso 1 1 calc R
C25 C 0.25550(17) 0.3235(2) 0.04973(16) 0.0251(5) Uani 1 1 d .
H25A H 0.1867 0.3078 0.0113 0.030 Uiso 1 1 calc R
C26 C 0.45110(17) 0.47426(18) 0.19398(16) 0.0221(4) Uani 1 1 d .
H26A H 0.4424 0.5419 0.2113 0.026 Uiso 1 1 calc R
H26B H 0.5196 0.4912 0.2323 0.026 Uiso 1 1 calc R
C27 C 0.26407(16) 0.37674(18) 0.15963(15) 0.0207(4) Uani 1 1 d .
H27A H 0.2097 0.3291 0.1748 0.025 Uiso 1 1 calc R
H27B H 0.2545 0.4440 0.1771 0.025 Uiso 1 1 calc R
C28 C 0.45811(18) 0.3172(2) 0.05698(16) 0.0266(5) Uani 1 1 d .
H28A H 0.4532 0.2830 -0.0137 0.032 Uiso 1 1 calc R
H28B H 0.5265 0.3323 0.0942 0.032 Uiso 1 1 calc R
C29 C 0.27011(18) 0.2192(2) 0.02297(16) 0.0261(5) Uani 1 1 d .
H29A H 0.2169 0.1705 0.0382 0.031 Uiso 1 1 calc R
H29B H 0.2632 0.1837 -0.0480 0.031 Uiso 1 1 calc R
C30 C 0.38553(16) 0.29592(17) 0.19097(14) 0.0186(4) Uani 1 1 d .
H30A H 0.4540 0.3115 0.2284 0.022 Uiso 1 1 calc R
H30B H 0.3342 0.2466 0.2071 0.022 Uiso 1 1 calc R
C31 C 0.3379(2) 0.3981(2) 0.02567(17) 0.0303(5) Uani 1 1 d .
H31A H 0.3289 0.4656 0.0426 0.036 Uiso 1 1 calc R
H31B H 0.3319 0.3644 -0.0453 0.036 Uiso 1 1 calc R
C32 C 0.51754(17) 0.72884(17) 0.54884(17) 0.0237(4) Uani 1 1 d .
H32A H 0.5697 0.7384 0.6021 0.036 Uiso 1 1 calc R
H32B H 0.4765 0.7681 0.5763 0.036 Uiso 1 1 calc R
H32C H 0.5505 0.7559 0.5066 0.036 Uiso 1 1 calc R
C33 C 0.27605(16) -0.02296(16) 0.41937(15) 0.0166(4) Uani 1 1 d .
C34 C 0.3538(3) -0.1600(2) 0.3640(2) 0.0412(7) Uani 1 1 d .
H34A H 0.4060 -0.1830 0.3861 0.049 Uiso 1 1 calc R
C35 C 0.29728(19) -0.09863(18) 0.24787(17) 0.0255(5) Uani 1 1 d .
H35A H 0.3125 -0.0811 0.1933 0.031 Uiso 1 1 calc R
C36 C 0.1682(2) -0.2142(2) 0.2963(2) 0.0429(7) Uani 1 1 d .
H36A H 0.0992 -0.2734 0.2731 0.052 Uiso 1 1 calc R
C37 C 0.3560(2) -0.0610(2) 0.45022(19) 0.0336(6) Uani 1 1 d .
H37A H 0.4247 -0.0028 0.4741 0.040 Uiso 1 1 calc R
H37B H 0.3422 -0.0783 0.5045 0.040 Uiso 1 1 calc R
C38 C 0.1708(2) -0.11497(19) 0.38246(19) 0.0328(6) Uani 1 1 d .
H38A H 0.1182 -0.0929 0.3611 0.039 Uiso 1 1 calc R
H38B H 0.1552 -0.1325 0.4363 0.039 Uiso 1 1 calc R
C39 C 0.3764(2) -0.1344(2) 0.2805(2) 0.0346(6) Uani 1 1 d .
H39A H 0.3744 -0.1983 0.2251 0.041 Uiso 1 1 calc R
H39B H 0.4453 -0.0771 0.3023 0.041 Uiso 1 1 calc R
C40 C 0.1911(2) -0.1872(2) 0.21235(19) 0.0347(6) Uani 1 1 d .
H40A H 0.1875 -0.2512 0.1560 0.042 Uiso 1 1 calc R
H40B H 0.1399 -0.1637 0.1908 0.042 Uiso 1 1 calc R
C41 C 0.30184(18) 0.00112(17) 0.33403(16) 0.0227(4) Uani 1 1 d .
H41A H 0.2529 0.0267 0.3119 0.027 Uiso 1 1 calc R
H41B H 0.3710 0.0583 0.3570 0.027 Uiso 1 1 calc R
C42 C 0.2492(3) -0.2489(2) 0.3294(2) 0.0531(9) Uani 1 1 d .
H42A H 0.2349 -0.2670 0.3833 0.064 Uiso 1 1 calc R
H42B H 0.2469 -0.3132 0.2743 0.064 Uiso 1 1 calc R
C43 C 0.4093(2) 0.2348(2) 0.78057(16) 0.0309(5) Uani 1 1 d .
H43A H 0.4778 0.2411 0.7744 0.046 Uiso 1 1 calc R
H43B H 0.3825 0.1829 0.8054 0.046 Uiso 1 1 calc R
H43C H 0.4127 0.3043 0.8261 0.046 Uiso 1 1 calc R
C44 C -0.22675(15) 0.20967(16) 0.31109(15) 0.0162(4) Uani 1 1 d .
C45 C -0.31510(17) 0.02431(18) 0.16750(17) 0.0259(5) Uani 1 1 d .
H45A H -0.3196 -0.0504 0.1418 0.031 Uiso 1 1 calc R
C46 C -0.27320(19) 0.1839(2) 0.13656(17) 0.0302(5) Uani 1 1 d .
H46A H -0.2511 0.2134 0.0905 0.036 Uiso 1 1 calc R
C47 C -0.41227(18) 0.1383(2) 0.21490(19) 0.0331(6) Uani 1 1 d .
H47A H -0.4804 0.1390 0.2210 0.040 Uiso 1 1 calc R
C48 C -0.23732(16) 0.09296(16) 0.26884(16) 0.0206(4) Uani 1 1 d .
H48A H -0.1702 0.0910 0.2634 0.025 Uiso 1 1 calc R
H48B H -0.2594 0.0631 0.3140 0.025 Uiso 1 1 calc R
C49 C -0.33381(17) 0.2072(2) 0.31624(17) 0.0265(5) Uani 1 1 d .
H49A H -0.3564 0.1784 0.3618 0.032 Uiso 1 1 calc R
H49B H -0.3303 0.2809 0.3423 0.032 Uiso 1 1 calc R
C50 C -0.28046(18) 0.0695(2) 0.09735(17) 0.0292(5) Uani 1 1 d .
H50A H -0.3298 0.0250 0.0317 0.035 Uiso 1 1 calc R
H50B H -0.2131 0.0686 0.0912 0.035 Uiso 1 1 calc R
C51 C -0.3782(2) 0.1842(2) 0.1454(2) 0.0378(6) Uani 1 1 d .
H51A H -0.3742 0.2579 0.1706 0.045 Uiso 1 1 calc R
H51B H -0.4284 0.1408 0.0802 0.045 Uiso 1 1 calc R
C52 C -0.19540(17) 0.25344(18) 0.23793(16) 0.0230(4) Uani 1 1 d .
H52A H -0.1908 0.3274 0.2628 0.028 Uiso 1 1 calc R
H52B H -0.1273 0.2549 0.2321 0.028 Uiso 1 1 calc R
C53 C -0.41999(18) 0.0239(2) 0.17532(19) 0.0320(5) Uani 1 1 d .
H53A H -0.4701 -0.0207 0.1101 0.038 Uiso 1 1 calc R
H53B H -0.4433 -0.0064 0.2198 0.038 Uiso 1 1 calc R
C54 C -0.13506(17) 0.49207(18) 0.66206(16) 0.0220(4) Uani 1 1 d .
H54A H -0.0940 0.5677 0.6833 0.033 Uiso 1 1 calc R
H54B H -0.1249 0.4754 0.7170 0.033 Uiso 1 1 calc R
H54C H -0.2072 0.4767 0.6393 0.033 Uiso 1 1 calc R
C55 C 0.15826(19) 0.0030(2) 0.11604(17) 0.0275(5) Uani 1 1 d .
H55A H 0.1673 -0.0640 0.0881 0.041 Uiso 1 1 calc R
H55B H 0.2251 0.0627 0.1497 0.041 Uiso 1 1 calc R
H55C H 0.1229 0.0116 0.0636 0.041 Uiso 1 1 calc R
C56 C -0.00343(18) -0.08002(18) 0.13711(17) 0.0267(5) Uani 1 1 d .
H56A H -0.0018 -0.1478 0.0914 0.032 Uiso 1 1 calc R
H56B H -0.0438 -0.0579 0.0995 0.032 Uiso 1 1 calc R
C57 C -0.05025(17) -0.09440(17) 0.21533(18) 0.0260(5) Uani 1 1 d .
H57A H -0.1219 -0.1471 0.1859 0.031 Uiso 1 1 calc R
H57B H -0.0122 -0.1207 0.2502 0.031 Uiso 1 1 calc R
C58 C -0.08050(18) 0.0026(2) 0.36556(18) 0.0267(5) Uani 1 1 d .
H58A H -0.1499 -0.0524 0.3430 0.040 Uiso 1 1 calc R
H58B H -0.0801 0.0719 0.4078 0.040 Uiso 1 1 calc R
H58C H -0.0348 -0.0146 0.4025 0.040 Uiso 1 1 calc R
C101 C 0.7438(3) 0.4784(3) 0.1404(4) 0.0730(12) Uani 1 1 d .
H10A H 0.6909 0.4863 0.1738 0.109 Uiso 1 1 calc R
H10B H 0.7725 0.4340 0.1573 0.109 Uiso 1 1 calc R
H10C H 0.7139 0.4445 0.0695 0.109 Uiso 1 1 calc R
O102 O 0.8223(2) 0.5805(2) 0.1705(2) 0.0751(8) Uani 1 1 d .
C103 C 0.8881(3) 0.5783(3) 0.1095(3) 0.0637(10) Uani 1 1 d .
H10D H 0.9323 0.6525 0.1258 0.076 Uiso 1 1 calc R
H10E H 0.8466 0.5439 0.0408 0.076 Uiso 1 1 calc R
C104 C 0.9543(3) 0.5208(3) 0.1172(3) 0.0541(8) Uani 1 1 d .
H10F H 1.0179 0.5502 0.1004 0.065 Uiso 1 1 calc R
H10G H 0.9729 0.5312 0.1852 0.065 Uiso 1 1 calc R
O104 O 0.9025(2) 0.4116(2) 0.05334(19) 0.0608(7) Uani 1 1 d .
C106 C 0.9566(3) 0.3513(3) 0.0674(3) 0.0648(10) Uani 1 1 d .
H10H H 0.9193 0.2762 0.0198 0.097 Uiso 1 1 calc R
H10I H 0.9633 0.3580 0.1338 0.097 Uiso 1 1 calc R
H10J H 1.0246 0.3782 0.0583 0.097 Uiso 1 1 calc R
loop_
_atom_site_aniso_label
_atom_site_aniso_U_11
_atom_site_aniso_U_22
_atom_site_aniso_U_33
_atom_site_aniso_U_23
_atom_site_aniso_U_13
_atom_site_aniso_U_12
U1 0.01065(3) 0.01090(3) 0.00961(3) 0.00291(2) 0.00220(2) 0.00424(2)
S1 0.0317(3) 0.0386(3) 0.0192(3) 0.0137(2) 0.0006(2) 0.0126(3)
O1 0.0144(7) 0.0143(7) 0.0128(6) 0.0037(5) 0.0037(5) 0.0014(5)
O2 0.0189(7) 0.0163(7) 0.0142(7) 0.0048(5) 0.0010(5) 0.0084(6)
O3 0.0143(7) 0.0184(7) 0.0141(6) 0.0027(5) 0.0037(5) 0.0084(6)
O4 0.0203(7) 0.0176(7) 0.0155(7) 0.0019(6) 0.0030(6) 0.0065(6)
O5 0.0177(7) 0.0155(7) 0.0227(7) 0.0083(6) 0.0049(6) 0.0047(6)
N1 0.0119(7) 0.0131(7) 0.0128(7) 0.0060(6) 0.0040(6) 0.0052(6)
C1 0.0126(9) 0.0175(9) 0.0129(8) 0.0056(7) 0.0022(7) 0.0053(7)
C2 0.0118(8) 0.0164(9) 0.0134(9) 0.0055(7) 0.0031(7) 0.0061(7)
C3 0.0109(8) 0.0136(9) 0.0143(9) 0.0041(7) 0.0029(7) 0.0040(7)
C4 0.0130(8) 0.0164(9) 0.0133(8) 0.0063(7) 0.0046(7) 0.0061(7)
C5 0.0136(9) 0.0168(9) 0.0211(10) 0.0092(8) 0.0070(7) 0.0058(7)
C6 0.0129(9) 0.0129(9) 0.0203(10) 0.0043(8) 0.0046(7) 0.0043(7)
C7 0.0128(9) 0.0167(9) 0.0149(9) 0.0035(7) 0.0034(7) 0.0059(7)
C8 0.0186(9) 0.0177(9) 0.0147(9) 0.0084(8) 0.0077(7) 0.0091(8)
C9 0.0164(9) 0.0166(9) 0.0165(9) 0.0093(8) 0.0058(7) 0.0074(7)
C10 0.0162(9) 0.0140(9) 0.0146(9) 0.0075(7) 0.0033(7) 0.0053(7)
C11 0.0141(9) 0.0150(9) 0.0168(9) 0.0080(7) 0.0044(7) 0.0055(7)
C12 0.0186(10) 0.0231(10) 0.0188(10) 0.0122(8) 0.0048(8) 0.0105(8)
C13 0.0197(10) 0.0221(10) 0.0150(9) 0.0104(8) 0.0032(7) 0.0075(8)
C14 0.0241(10) 0.0175(9) 0.0143(9) 0.0080(8) 0.0067(8) 0.0087(8)
C15 0.0146(9) 0.0133(9) 0.0170(9) 0.0058(7) 0.0046(7) 0.0068(7)
C16 0.0142(9) 0.0141(9) 0.0164(9) 0.0074(7) 0.0049(7) 0.0068(7)
C17 0.0167(9) 0.0144(9) 0.0144(9) 0.0063(7) 0.0059(7) 0.0084(7)
C18 0.0148(9) 0.0146(9) 0.0159(9) 0.0066(7) 0.0048(7) 0.0068(7)
C19 0.0156(9) 0.0175(9) 0.0188(9) 0.0084(8) 0.0069(7) 0.0089(8)
C20 0.0194(10) 0.0158(9) 0.0166(9) 0.0071(8) 0.0078(7) 0.0092(8)
C21 0.0185(9) 0.0139(9) 0.0146(9) 0.0042(7) 0.0039(7) 0.0065(7)
C22 0.0144(9) 0.0183(9) 0.0134(9) 0.0071(7) 0.0051(7) 0.0061(7)
C23 0.0265(11) 0.0359(13) 0.0210(10) 0.0171(10) 0.0127(9) 0.0115(10)
C24 0.0260(11) 0.0271(11) 0.0149(9) 0.0068(8) 0.0070(8) 0.0153(9)
C25 0.0225(11) 0.0388(13) 0.0150(10) 0.0105(9) 0.0027(8) 0.0166(10)
C26 0.0220(10) 0.0254(11) 0.0204(10) 0.0129(9) 0.0093(8) 0.0070(9)
C27 0.0186(10) 0.0280(11) 0.0176(10) 0.0100(9) 0.0049(8) 0.0122(9)
C28 0.0261(11) 0.0423(14) 0.0177(10) 0.0140(10) 0.0118(9) 0.0187(10)
C29 0.0267(11) 0.0315(12) 0.0129(9) 0.0037(9) 0.0034(8) 0.0117(10)
C30 0.0214(10) 0.0217(10) 0.0139(9) 0.0074(8) 0.0058(8) 0.0106(8)
C31 0.0410(14) 0.0432(14) 0.0191(11) 0.0183(10) 0.0119(10) 0.0248(12)
C32 0.0201(10) 0.0139(9) 0.0270(11) 0.0028(8) 0.0086(9) 0.0021(8)
C33 0.0191(9) 0.0161(9) 0.0171(9) 0.0079(8) 0.0056(7) 0.0094(8)
C34 0.067(2) 0.0406(15) 0.0335(14) 0.0158(12) 0.0145(13) 0.0432(15)
C35 0.0353(13) 0.0236(11) 0.0225(11) 0.0098(9) 0.0144(9) 0.0163(10)
C36 0.0426(16) 0.0178(11) 0.0432(16) -0.0009(11) 0.0220(13) -0.0030(11)
C37 0.0466(15) 0.0368(14) 0.0274(12) 0.0129(11) 0.0075(11) 0.0314(13)
C38 0.0298(13) 0.0197(11) 0.0335(13) 0.0024(10) 0.0169(10) 0.0009(9)
C39 0.0355(14) 0.0362(14) 0.0362(14) 0.0108(11) 0.0159(11) 0.0241(12)
C40 0.0356(14) 0.0270(12) 0.0251(12) -0.0035(10) 0.0035(10) 0.0134(11)
C41 0.0296(11) 0.0188(10) 0.0229(10) 0.0099(9) 0.0128(9) 0.0109(9)
C42 0.110(3) 0.0241(13) 0.0467(17) 0.0223(13) 0.0464(19) 0.0365(17)
C43 0.0413(14) 0.0373(13) 0.0160(10) 0.0094(10) 0.0009(10) 0.0236(12)
C44 0.0135(9) 0.0156(9) 0.0170(9) 0.0042(7) 0.0028(7) 0.0072(7)
C45 0.0221(11) 0.0162(10) 0.0272(11) 0.0012(9) 0.0021(9) 0.0053(8)
C46 0.0312(13) 0.0308(12) 0.0192(11) 0.0101(10) -0.0024(9) 0.0057(10)
C47 0.0164(10) 0.0373(14) 0.0292(12) -0.0002(11) -0.0026(9) 0.0131(10)
C48 0.0198(10) 0.0157(9) 0.0235(10) 0.0069(8) 0.0037(8) 0.0069(8)
C49 0.0166(10) 0.0299(12) 0.0233(11) 0.0007(9) 0.0022(8) 0.0126(9)
C50 0.0235(11) 0.0295(12) 0.0184(10) 0.0001(9) 0.0018(9) 0.0061(9)
C51 0.0356(14) 0.0342(14) 0.0299(13) 0.0044(11) -0.0120(11) 0.0170(12)
C52 0.0244(11) 0.0196(10) 0.0206(10) 0.0092(9) 0.0005(8) 0.0054(8)
C53 0.0179(11) 0.0297(12) 0.0314(13) 0.0046(10) 0.0012(9) 0.0026(9)
C54 0.0247(11) 0.0224(10) 0.0191(10) 0.0051(8) 0.0095(8) 0.0139(9)
C55 0.0338(13) 0.0283(12) 0.0202(10) 0.0067(9) 0.0110(9) 0.0161(10)
C56 0.0233(11) 0.0178(10) 0.0220(11) -0.0021(8) -0.0025(9) 0.0046(9)
C57 0.0206(10) 0.0133(10) 0.0332(12) 0.0055(9) 0.0007(9) 0.0023(8)
C58 0.0217(11) 0.0287(12) 0.0331(12) 0.0197(10) 0.0098(9) 0.0064(9)
C101 0.059(2) 0.063(3) 0.095(3) 0.036(2) 0.024(2) 0.021(2)
O102 0.0676(18) 0.0618(17) 0.083(2) 0.0171(15) 0.0233(16) 0.0286(15)
C103 0.059(2) 0.052(2) 0.085(3) 0.033(2) 0.014(2) 0.0270(18)
C104 0.056(2) 0.0451(18) 0.055(2) 0.0191(16) 0.0120(16) 0.0192(16)
O104 0.0668(16) 0.0483(14) 0.0549(15) 0.0122(12) 0.0022(12) 0.0268(13)
C106 0.088(3) 0.056(2) 0.057(2) 0.0220(18) 0.014(2) 0.043(2)
loop_
_atom_type_symbol
_atom_type_description
_atom_type_scat_dispersion_real
_atom_type_scat_dispersion_imag
_atom_type_scat_source
C C 0.0033 0.0016 'International Tables Vol C Tables 4.2.6.8 and 6.1.1.4'
H H 0.0000 0.0000 'International Tables Vol C Tables 4.2.6.8 and 6.1.1.4'
N N 0.0061 0.0033 'International Tables Vol C Tables 4.2.6.8 and 6.1.1.4'
O O 0.0106 0.0060 'International Tables Vol C Tables 4.2.6.8 and 6.1.1.4'
S S 0.1246 0.1234 'International Tables Vol C Tables 4.2.6.8 and 6.1.1.4'
U U -9.6767 9.6646 'International Tables Vol C Tables 4.2.6.8 and 6.1.1.4'
loop_
_geom_angle_atom_site_label_1
_geom_angle_atom_site_label_2
_geom_angle_atom_site_label_3
_geom_angle
O3 U1 O1 117.77(5)
O3 U1 O2 117.38(5)
O1 U1 O2 100.77(5)
O3 U1 O5 77.87(5)
O1 U1 O5 163.61(5)
O2 U1 O5 73.94(5)
O3 U1 O4 132.45(5)
O1 U1 O4 100.97(5)
O2 U1 O4 77.76(5)
O5 U1 O4 62.91(5)
O3 U1 N1 72.93(5)
O1 U1 N1 74.62(5)
O2 U1 N1 72.47(5)
O5 U1 N1 117.11(5)
O4 U1 N1 148.30(5)
O3 U1 S1 81.37(4)
O1 U1 S1 87.51(4)
O2 U1 S1 151.12(4)
O5 U1 S1 90.33(4)
O4 U1 S1 73.49(4)
N1 U1 S1 136.24(4)
U1 S1 H1S 133.0
C3 O1 U1 144.28(12)
C10 O2 U1 145.03(12)
C17 O3 U1 149.84(12)
C55 O4 C56 111.60(17)
C55 O4 U1 120.19(13)
C56 O4 U1 113.43(12)
C57 O5 C58 111.82(17)
C57 O5 U1 119.74(13)
C58 O5 U1 115.40(12)
C1 N1 C15 107.37(15)
C1 N1 C8 108.89(15)
C15 N1 C8 108.77(15)
C1 N1 U1 111.35(11)
C15 N1 U1 112.14(11)
C8 N1 U1 108.25(11)
N1 C1 C2 115.53(16)
N1 C1 H1A 108.4
C2 C1 H1A 108.4
N1 C1 H1B 108.4
C2 C1 H1B 108.4
H1A C1 H1B 107.5
C7 C2 C3 120.31(18)
C7 C2 C1 119.44(17)
C3 C2 C1 120.01(17)
O1 C3 C2 116.69(17)
O1 C3 C4 123.51(17)
C2 C3 C4 119.80(17)
C5 C4 C3 116.95(17)
C5 C4 C22 119.96(17)
C3 C4 C22 123.10(17)
C6 C5 C4 123.79(19)
C6 C5 H5A 118.1
C4 C5 H5A 118.1
C7 C6 C5 117.67(18)
C7 C6 C32 121.39(19)
C5 C6 C32 120.91(19)
C6 C7 C2 121.15(18)
C6 C7 H7A 119.4
C2 C7 H7A 119.4
N1 C8 C9 112.50(16)
N1 C8 H8A 109.1
C9 C8 H8A 109.1
N1 C8 H8B 109.1
C9 C8 H8B 109.1
H8A C8 H8B 107.8
C14 C9 C10 120.71(18)
C14 C9 C8 119.58(18)
C10 C9 C8 119.57(17)
O2 C10 C9 116.95(17)
O2 C10 C11 123.14(17)
C9 C10 C11 119.88(18)
C12 C11 C10 116.62(18)
C12 C11 C33 120.28(18)
C10 C11 C33 123.09(17)
C13 C12 C11 123.99(19)
C13 C12 H12A 118.0
C11 C12 H12A 118.0
C14 C13 C12 118.16(19)
C14 C13 C43 121.1(2)
C12 C13 C43 120.77(19)
C13 C14 C9 120.51(19)
C13 C14 H14A 119.7
C9 C14 H14A 119.7
N1 C15 C16 117.06(16)
N1 C15 H15A 108.0
C16 C15 H15A 108.0
N1 C15 H15B 108.0
C16 C15 H15B 108.0
H15A C15 H15B 107.3
C21 C16 C17 120.27(18)
C21 C16 C15 118.83(17)
C17 C16 C15 120.37(17)
O3 C17 C16 116.85(17)
O3 C17 C18 122.61(17)
C16 C17 C18 120.52(17)
C19 C18 C17 116.26(18)
C19 C18 C44 120.49(17)
C17 C18 C44 122.93(17)
C20 C19 C18 123.95(18)
C20 C19 H19A 118.0
C18 C19 H19A 118.0
C21 C20 C19 117.75(18)
C21 C20 C54 120.76(18)
C19 C20 C54 121.45(18)
C20 C21 C16 121.01(18)
C20 C21 H21A 119.5
C16 C21 H21A 119.5
C4 C22 C26 112.35(16)
C4 C22 C27 109.75(16)
C26 C22 C27 107.45(17)
C4 C22 C30 110.66(16)
C26 C22 C30 107.17(16)
C27 C22 C30 109.35(17)
C28 C23 C31 109.9(2)
C28 C23 C26 109.71(19)
C31 C23 C26 108.86(19)
C28 C23 H23A 109.4
C31 C23 H23A 109.4
C26 C23 H23A 109.4
C28 C24 C29 109.74(19)
C28 C24 C30 109.30(18)
C29 C24 C30 109.42(17)
C28 C24 H24A 109.5
C29 C24 H24A 109.5
C30 C24 H24A 109.5
C31 C25 C29 109.30(19)
C31 C25 C27 109.7(2)
C29 C25 C27 109.33(18)
C31 C25 H25A 109.5
C29 C25 H25A 109.5
C27 C25 H25A 109.5
C23 C26 C22 111.30(18)
C23 C26 H26A 109.4
C22 C26 H26A 109.4
C23 C26 H26B 109.4
C22 C26 H26B 109.4
H26A C26 H26B 108.0
C25 C27 C22 110.66(17)
C25 C27 H27A 109.5
C22 C27 H27A 109.5
C25 C27 H27B 109.5
C22 C27 H27B 109.5
H27A C27 H27B 108.1
C24 C28 C23 109.14(18)
C24 C28 H28A 109.9
C23 C28 H28A 109.9
C24 C28 H28B 109.9
C23 C28 H28B 109.9
H28A C28 H28B 108.3
C24 C29 C25 109.88(19)
C24 C29 H29A 109.7
C25 C29 H29A 109.7
C24 C29 H29B 109.7
C25 C29 H29B 109.7
H29A C29 H29B 108.2
C24 C30 C22 110.83(17)
C24 C30 H30A 109.5
C22 C30 H30A 109.5
C24 C30 H30B 109.5
C22 C30 H30B 109.5
H30A C30 H30B 108.1
C25 C31 C23 109.33(18)
C25 C31 H31A 109.8
C23 C31 H31A 109.8
C25 C31 H31B 109.8
C23 C31 H31B 109.8
H31A C31 H31B 108.3
C6 C32 H32A 109.5
C6 C32 H32B 109.5
H32A C32 H32B 109.5
C6 C32 H32C 109.5
H32A C32 H32C 109.5
H32B C32 H32C 109.5
C38 C33 C11 109.54(17)
C38 C33 C37 108.0(2)
C11 C33 C37 111.67(17)
C38 C33 C41 109.35(18)
C11 C33 C41 111.90(16)
C37 C33 C41 106.27(18)
C42 C34 C39 109.5(2)
C42 C34 C37 108.9(2)
C39 C34 C37 110.1(2)
C42 C34 H34A 109.5
C39 C34 H34A 109.5
C37 C34 H34A 109.5
C39 C35 C40 110.2(2)
C39 C35 C41 109.3(2)
C40 C35 C41 109.68(19)
C39 C35 H35A 109.2
C40 C35 H35A 109.2
C41 C35 H35A 109.2
C42 C36 C40 109.0(2)
C42 C36 C38 109.6(3)
C40 C36 C38 109.5(2)
C42 C36 H36A 109.6
C40 C36 H36A 109.6
C38 C36 H36A 109.6
C34 C37 C33 111.2(2)
C34 C37 H37A 109.4
C33 C37 H37A 109.4
C34 C37 H37B 109.4
C33 C37 H37B 109.4
H37A C37 H37B 108.0
C33 C38 C36 110.5(2)
C33 C38 H38A 109.6
C36 C38 H38A 109.6
C33 C38 H38B 109.6
C36 C38 H38B 109.6
H38A C38 H38B 108.1
C34 C39 C35 109.1(2)
C34 C39 H39A 109.9
C35 C39 H39A 109.9
C34 C39 H39B 109.9
C35 C39 H39B 109.9
H39A C39 H39B 108.3
C35 C40 C36 109.1(2)
C35 C40 H40A 109.9
C36 C40 H40A 109.9
C35 C40 H40B 109.9
C36 C40 H40B 109.9
H40A C40 H40B 108.3
C35 C41 C33 111.08(18)
C35 C41 H41A 109.4
C33 C41 H41A 109.4
C35 C41 H41B 109.4
C33 C41 H41B 109.4
H41A C41 H41B 108.0
C34 C42 C36 110.0(2)
C34 C42 H42A 109.7
C36 C42 H42A 109.7
C34 C42 H42B 109.7
C36 C42 H42B 109.7
H42A C42 H42B 108.2
C13 C43 H43A 109.5
C13 C43 H43B 109.5
H43A C43 H43B 109.5
C13 C43 H43C 109.5
H43A C43 H43C 109.5
H43B C43 H43C 109.5
C18 C44 C49 111.73(16)
C18 C44 C48 113.47(16)
C49 C44 C48 106.87(17)
C18 C44 C52 108.63(16)
C49 C44 C52 107.45(18)
C48 C44 C52 108.47(17)
C53 C45 C50 109.6(2)
C53 C45 C48 109.98(19)
C50 C45 C48 109.48(18)
C53 C45 H45A 109.3
C50 C45 H45A 109.3
C48 C45 H45A 109.3
C50 C46 C51 109.3(2)
C50 C46 C52 109.8(2)
C51 C46 C52 109.3(2)
C50 C46 H46A 109.5
C51 C46 H46A 109.5
C52 C46 H46A 109.5
C51 C47 C53 109.8(2)
C51 C47 C49 109.1(2)
C53 C47 C49 109.6(2)
C51 C47 H47A 109.4
C53 C47 H47A 109.4
C49 C47 H47A 109.4
C45 C48 C44 111.18(18)
C45 C48 H48A 109.4
C44 C48 H48A 109.4
C45 C48 H48B 109.4
C44 C48 H48B 109.4
H48A C48 H48B 108.0
C47 C49 C44 111.70(18)
C47 C49 H49A 109.3
C44 C49 H49A 109.3
C47 C49 H49B 109.3
C44 C49 H49B 109.3
H49A C49 H49B 107.9
C45 C50 C46 109.41(19)
C45 C50 H50A 109.8
C46 C50 H50A 109.8
C45 C50 H50B 109.8
C46 C50 H50B 109.8
H50A C50 H50B 108.2
C47 C51 C46 109.4(2)
C47 C51 H51A 109.8
C46 C51 H51A 109.8
C47 C51 H51B 109.8
C46 C51 H51B 109.8
H51A C51 H51B 108.2
C46 C52 C44 110.95(18)
C46 C52 H52A 109.4
C44 C52 H52A 109.4
C46 C52 H52B 109.4
C44 C52 H52B 109.4
H52A C52 H52B 108.0
C47 C53 C45 108.8(2)
C47 C53 H53A 109.9
C45 C53 H53A 109.9
C47 C53 H53B 109.9
C45 C53 H53B 109.9
H53A C53 H53B 108.3
C20 C54 H54A 109.5
C20 C54 H54B 109.5
H54A C54 H54B 109.5
C20 C54 H54C 109.5
H54A C54 H54C 109.5
H54B C54 H54C 109.5
O4 C55 H55A 109.5
O4 C55 H55B 109.5
H55A C55 H55B 109.5
O4 C55 H55C 109.5
H55A C55 H55C 109.5
H55B C55 H55C 109.5
O4 C56 C57 107.45(18)
O4 C56 H56A 110.2
C57 C56 H56A 110.2
O4 C56 H56B 110.2
C57 C56 H56B 110.2
H56A C56 H56B 108.5
O5 C57 C56 108.13(18)
O5 C57 H57A 110.1
C56 C57 H57A 110.1
O5 C57 H57B 110.1
C56 C57 H57B 110.1
H57A C57 H57B 108.4
O5 C58 H58A 109.5
O5 C58 H58B 109.5
H58A C58 H58B 109.5
O5 C58 H58C 109.5
H58A C58 H58C 109.5
H58B C58 H58C 109.5
O102 C101 H10A 109.5
O102 C101 H10B 109.5
H10A C101 H10B 109.5
O102 C101 H10C 109.5
H10A C101 H10C 109.5
H10B C101 H10C 109.5
C103 O102 C101 112.4(3)
O102 C103 C104 114.5(3)
O102 C103 H10D 108.6
C104 C103 H10D 108.6
O102 C103 H10E 108.6
C104 C103 H10E 108.6
H10D C103 H10E 107.6
O104 C104 C103 110.0(3)
O104 C104 H10F 109.7
C103 C104 H10F 109.7
O104 C104 H10G 109.7
C103 C104 H10G 109.7
H10F C104 H10G 108.2
C104 O104 C106 112.1(3)
O104 C106 H10H 109.5
O104 C106 H10I 109.5
H10H C106 H10I 109.5
O104 C106 H10J 109.5
H10H C106 H10J 109.5
H10I C106 H10J 109.5
loop_
_geom_bond_atom_site_label_1
_geom_bond_atom_site_label_2
_geom_bond_distance
U1 O3 2.1537(14)
U1 O1 2.1597(14)
U1 O2 2.2002(14)
U1 O5 2.5823(15)
U1 O4 2.6160(14)
U1 N1 2.6164(16)
U1 S1 2.7965(6)
S1 H1S 1.0872
O1 C3 1.367(2)
O2 C10 1.354(2)
O3 C17 1.359(2)
O4 C55 1.440(3)
O4 C56 1.442(3)
O5 C57 1.434(3)
O5 C58 1.445(3)
N1 C1 1.490(2)
N1 C15 1.491(2)
N1 C8 1.500(2)
C1 C2 1.505(3)
C1 H1A 0.9900
C1 H1B 0.9900
C2 C7 1.391(3)
C2 C3 1.408(3)
C3 C4 1.416(3)
C4 C5 1.400(3)
C4 C22 1.533(3)
C5 C6 1.393(3)
C5 H5A 0.9500
C6 C7 1.386(3)
C6 C32 1.510(3)
C7 H7A 0.9500
C8 C9 1.507(3)
C8 H8A 0.9900
C8 H8B 0.9900
C9 C14 1.394(3)
C9 C10 1.409(3)
C10 C11 1.425(3)
C11 C12 1.401(3)
C11 C33 1.538(3)
C12 C13 1.392(3)
C12 H12A 0.9500
C13 C14 1.391(3)
C13 C43 1.508(3)
C14 H14A 0.9500
C15 C16 1.508(3)
C15 H15A 0.9900
C15 H15B 0.9900
C16 C21 1.390(3)
C16 C17 1.404(3)
C17 C18 1.416(3)
C18 C19 1.406(3)
C18 C44 1.538(3)
C19 C20 1.393(3)
C19 H19A 0.9500
C20 C21 1.388(3)
C20 C54 1.510(3)
C21 H21A 0.9500
C22 C26 1.544(3)
C22 C27 1.545(3)
C22 C30 1.549(3)
C23 C28 1.532(3)
C23 C31 1.535(3)
C23 C26 1.538(3)
C23 H23A 1.0000
C24 C28 1.528(3)
C24 C29 1.535(3)
C24 C30 1.537(3)
C24 H24A 1.0000
C25 C31 1.531(4)
C25 C29 1.535(3)
C25 C27 1.537(3)
C25 H25A 1.0000
C26 H26A 0.9900
C26 H26B 0.9900
C27 H27A 0.9900
C27 H27B 0.9900
C28 H28A 0.9900
C28 H28B 0.9900
C29 H29A 0.9900
C29 H29B 0.9900
C30 H30A 0.9900
C30 H30B 0.9900
C31 H31A 0.9900
C31 H31B 0.9900
C32 H32A 0.9800
C32 H32B 0.9800
C32 H32C 0.9800
C33 C38 1.534(3)
C33 C37 1.544(3)
C33 C41 1.545(3)
C34 C42 1.511(5)
C34 C39 1.518(4)
C34 C37 1.542(4)
C34 H34A 1.0000
C35 C39 1.519(3)
C35 C40 1.524(4)
C35 C41 1.535(3)
C35 H35A 1.0000
C36 C42 1.534(5)
C36 C40 1.536(4)
C36 C38 1.540(3)
C36 H36A 1.0000
C37 H37A 0.9900
C37 H37B 0.9900
C38 H38A 0.9900
C38 H38B 0.9900
C39 H39A 0.9900
C39 H39B 0.9900
C40 H40A 0.9900
C40 H40B 0.9900
C41 H41A 0.9900
C41 H41B 0.9900
C42 H42A 0.9900
C42 H42B 0.9900
C43 H43A 0.9800
C43 H43B 0.9800
C43 H43C 0.9800
C44 C49 1.545(3)
C44 C48 1.545(3)
C44 C52 1.547(3)
C45 C53 1.529(3)
C45 C50 1.530(4)
C45 C48 1.538(3)
C45 H45A 1.0000
C46 C50 1.530(4)
C46 C51 1.537(4)
C46 C52 1.539(3)
C46 H46A 1.0000
C47 C51 1.524(4)
C47 C53 1.528(4)
C47 C49 1.542(3)
C47 H47A 1.0000
C48 H48A 0.9900
C48 H48B 0.9900
C49 H49A 0.9900
C49 H49B 0.9900
C50 H50A 0.9900
C50 H50B 0.9900
C51 H51A 0.9900
C51 H51B 0.9900
C52 H52A 0.9900
C52 H52B 0.9900
C53 H53A 0.9900
C53 H53B 0.9900
C54 H54A 0.9800
C54 H54B 0.9800
C54 H54C 0.9800
C55 H55A 0.9800
C55 H55B 0.9800
C55 H55C 0.9800
C56 C57 1.499(4)
C56 H56A 0.9900
C56 H56B 0.9900
C57 H57A 0.9900
C57 H57B 0.9900
C58 H58A 0.9800
C58 H58B 0.9800
C58 H58C 0.9800
C101 O102 1.422(5)
C101 H10A 0.9800
C101 H10B 0.9800
C101 H10C 0.9800
O102 C103 1.409(5)
C103 C104 1.496(5)
C103 H10D 0.9900
C103 H10E 0.9900
C104 O104 1.403(4)
C104 H10F 0.9900
C104 H10G 0.9900
O104 C106 1.424(4)
C106 H10H 0.9800
C106 H10I 0.9800
C106 H10J 0.9800
loop_
_geom_torsion_atom_site_label_1
_geom_torsion_atom_site_label_2
_geom_torsion_atom_site_label_3
_geom_torsion_atom_site_label_4
_geom_torsion
O3 U1 O1 C3 36.2(2)
O2 U1 O1 C3 -92.8(2)
O5 U1 O1 C3 -162.23(19)
O4 U1 O1 C3 -172.2(2)
N1 U1 O1 C3 -24.5(2)
S1 U1 O1 C3 115.1(2)
O3 U1 O2 C10 -72.6(2)
O1 U1 O2 C10 56.7(2)
O5 U1 O2 C10 -139.3(2)
O4 U1 O2 C10 155.7(2)
N1 U1 O2 C10 -13.3(2)
S1 U1 O2 C10 161.33(18)
O1 U1 O3 C17 -69.6(3)
O2 U1 O3 C17 51.1(3)
O5 U1 O3 C17 115.7(3)
O4 U1 O3 C17 149.7(2)
N1 U1 O3 C17 -8.0(2)
S1 U1 O3 C17 -152.1(3)
O3 U1 O4 C55 124.15(15)
O1 U1 O4 C55 -21.00(15)
O2 U1 O4 C55 -119.79(15)
O5 U1 O4 C55 162.15(16)
N1 U1 O4 C55 -99.46(17)
S1 U1 O4 C55 63.05(14)
O3 U1 O4 C56 -11.60(17)
O1 U1 O4 C56 -156.76(14)
O2 U1 O4 C56 104.46(15)
O5 U1 O4 C56 26.40(14)
N1 U1 O4 C56 124.79(15)
S1 U1 O4 C56 -72.71(14)
O3 U1 O5 C57 157.93(15)
O1 U1 O5 C57 -5.4(3)
O2 U1 O5 C57 -78.62(15)
O4 U1 O5 C57 5.61(14)
N1 U1 O5 C57 -138.66(14)
S1 U1 O5 C57 76.82(15)
O3 U1 O5 C58 -63.91(14)
O1 U1 O5 C58 132.73(19)
O2 U1 O5 C58 59.55(14)
O4 U1 O5 C58 143.78(15)
N1 U1 O5 C58 -0.49(15)
S1 U1 O5 C58 -145.01(14)
O3 U1 N1 C1 -152.40(13)
O1 U1 N1 C1 -26.24(12)
O2 U1 N1 C1 80.62(12)
O5 U1 N1 C1 141.44(11)
O4 U1 N1 C1 59.76(16)
S1 U1 N1 C1 -95.61(12)
O3 U1 N1 C15 -32.07(12)
O1 U1 N1 C15 94.09(12)
O2 U1 N1 C15 -159.04(13)
O5 U1 N1 C15 -98.22(12)
O4 U1 N1 C15 -179.90(11)
S1 U1 N1 C15 24.73(14)
O3 U1 N1 C8 87.93(12)
O1 U1 N1 C8 -145.91(12)
O2 U1 N1 C8 -39.05(11)
O5 U1 N1 C8 21.77(13)
O4 U1 N1 C8 -59.90(15)
S1 U1 N1 C8 144.72(10)
C15 N1 C1 C2 -56.6(2)
C8 N1 C1 C2 -174.22(16)
U1 N1 C1 C2 66.49(18)
N1 C1 C2 C7 121.97(19)
N1 C1 C2 C3 -63.7(2)
U1 O1 C3 C2 36.2(3)
U1 O1 C3 C4 -144.29(17)
C7 C2 C3 O1 -174.53(17)
C1 C2 C3 O1 11.2(3)
C7 C2 C3 C4 6.0(3)
C1 C2 C3 C4 -168.30(17)
O1 C3 C4 C5 174.45(17)
C2 C3 C4 C5 -6.1(3)
O1 C3 C4 C22 -5.4(3)
C2 C3 C4 C22 174.06(18)
C3 C4 C5 C6 1.8(3)
C22 C4 C5 C6 -178.32(18)
C4 C5 C6 C7 2.7(3)
C4 C5 C6 C32 -179.61(19)
C5 C6 C7 C2 -2.9(3)
C32 C6 C7 C2 179.36(19)
C3 C2 C7 C6 -1.3(3)
C1 C2 C7 C6 172.99(18)
C1 N1 C8 C9 -43.9(2)
C15 N1 C8 C9 -160.63(16)
U1 N1 C8 C9 77.29(16)
N1 C8 C9 C14 116.1(2)
N1 C8 C9 C10 -59.7(2)
U1 O2 C10 C9 35.1(3)
U1 O2 C10 C11 -142.75(18)
C14 C9 C10 O2 -174.29(18)
C8 C9 C10 O2 1.4(3)
C14 C9 C10 C11 3.7(3)
C8 C9 C10 C11 179.38(18)
O2 C10 C11 C12 174.13(18)
C9 C10 C11 C12 -3.7(3)
O2 C10 C11 C33 -7.2(3)
C9 C10 C11 C33 174.98(18)
C10 C11 C12 C13 1.2(3)
C33 C11 C12 C13 -177.54(19)
C11 C12 C13 C14 1.5(3)
C11 C12 C13 C43 -178.8(2)
C12 C13 C14 C9 -1.6(3)
C43 C13 C14 C9 178.7(2)
C10 C9 C14 C13 -0.9(3)
C8 C9 C14 C13 -176.63(19)
C1 N1 C15 C16 -171.21(16)
C8 N1 C15 C16 -53.5(2)
U1 N1 C15 C16 66.17(18)
N1 C15 C16 C21 130.77(19)
N1 C15 C16 C17 -57.6(2)
U1 O3 C17 C16 19.7(4)
U1 O3 C17 C18 -161.92(18)
C21 C16 C17 O3 -176.48(18)
C15 C16 C17 O3 12.0(3)
C21 C16 C17 C18 5.1(3)
C15 C16 C17 C18 -166.44(18)
O3 C17 C18 C19 176.69(18)
C16 C17 C18 C19 -5.0(3)
O3 C17 C18 C44 -9.8(3)
C16 C17 C18 C44 168.47(18)
C17 C18 C19 C20 1.3(3)
C44 C18 C19 C20 -172.30(19)
C18 C19 C20 C21 2.3(3)
C18 C19 C20 C54 179.9(2)
C19 C20 C21 C16 -2.3(3)
C54 C20 C21 C16 -179.92(19)
C17 C16 C21 C20 -1.3(3)
C15 C16 C21 C20 170.36(18)
C5 C4 C22 C26 10.6(3)
C3 C4 C22 C26 -169.58(18)
C5 C4 C22 C27 -108.9(2)
C3 C4 C22 C27 70.9(2)
C5 C4 C22 C30 130.34(19)
C3 C4 C22 C30 -49.8(2)
C28 C23 C26 C22 -59.7(2)
C31 C23 C26 C22 60.6(2)
C4 C22 C26 C23 -179.98(17)
C27 C22 C26 C23 -59.2(2)
C30 C22 C26 C23 58.3(2)
C31 C25 C27 C22 -60.5(2)
C29 C25 C27 C22 59.4(2)
C4 C22 C27 C25 -178.90(18)
C26 C22 C27 C25 58.7(2)
C30 C22 C27 C25 -57.3(2)
C29 C24 C28 C23 59.6(2)
C30 C24 C28 C23 -60.4(2)
C31 C23 C28 C24 -60.1(2)
C26 C23 C28 C24 59.5(2)
C28 C24 C29 C25 -59.7(2)
C30 C24 C29 C25 60.2(2)
C31 C25 C29 C24 59.5(2)
C27 C25 C29 C24 -60.5(2)
C28 C24 C30 C22 61.4(2)
C29 C24 C30 C22 -58.7(2)
C4 C22 C30 C24 178.10(17)
C26 C22 C30 C24 -59.1(2)
C27 C22 C30 C24 57.1(2)
C29 C25 C31 C23 -59.6(2)
C27 C25 C31 C23 60.2(2)
C28 C23 C31 C25 60.3(2)
C26 C23 C31 C25 -59.9(3)
C12 C11 C33 C38 113.4(2)
C10 C11 C33 C38 -65.2(3)
C12 C11 C33 C37 -6.2(3)
C10 C11 C33 C37 175.2(2)
C12 C11 C33 C41 -125.1(2)
C10 C11 C33 C41 56.2(3)
C42 C34 C37 C33 -60.1(3)
C39 C34 C37 C33 59.9(3)
C38 C33 C37 C34 58.9(3)
C11 C33 C37 C34 179.3(2)
C41 C33 C37 C34 -58.4(3)
C11 C33 C38 C36 179.9(2)
C37 C33 C38 C36 -58.3(3)
C41 C33 C38 C36 57.0(3)
C42 C36 C38 C33 59.6(3)
C40 C36 C38 C33 -59.9(3)
C42 C34 C39 C35 60.5(3)
C37 C34 C39 C35 -59.1(3)
C40 C35 C39 C34 -60.5(3)
C41 C35 C39 C34 60.1(3)
C39 C35 C40 C36 59.9(3)
C41 C35 C40 C36 -60.5(3)
C42 C36 C40 C35 -58.8(3)
C38 C36 C40 C35 61.1(3)
C39 C35 C41 C33 -62.0(3)
C40 C35 C41 C33 58.9(3)
C38 C33 C41 C35 -56.6(2)
C11 C33 C41 C35 -178.15(18)
C37 C33 C41 C35 59.7(2)
C39 C34 C42 C36 -60.7(3)
C37 C34 C42 C36 59.7(3)
C40 C36 C42 C34 59.7(3)
C38 C36 C42 C34 -60.1(3)
C19 C18 C44 C49 -7.7(3)
C17 C18 C44 C49 179.12(19)
C19 C18 C44 C48 -128.6(2)
C17 C18 C44 C48 58.2(3)
C19 C18 C44 C52 110.7(2)
C17 C18 C44 C52 -62.5(2)
C53 C45 C48 C44 -60.8(3)
C50 C45 C48 C44 59.7(2)
C18 C44 C48 C45 -178.17(18)
C49 C44 C48 C45 58.2(2)
C52 C44 C48 C45 -57.4(2)
C51 C47 C49 C44 -60.0(3)
C53 C47 C49 C44 60.3(3)
C18 C44 C49 C47 177.1(2)
C48 C44 C49 C47 -58.2(3)
C52 C44 C49 C47 58.0(3)
C53 C45 C50 C46 60.5(2)
C48 C45 C50 C46 -60.2(2)
C51 C46 C50 C45 -59.7(2)
C52 C46 C50 C45 60.2(3)
C53 C47 C51 C46 -60.3(3)
C49 C47 C51 C46 59.9(3)
C50 C46 C51 C47 59.6(3)
C52 C46 C51 C47 -60.6(3)
C50 C46 C52 C44 -59.3(3)
C51 C46 C52 C44 60.5(3)
C18 C44 C52 C46 -179.20(18)
C49 C44 C52 C46 -58.2(2)
C48 C44 C52 C46 57.0(2)
C51 C47 C53 C45 60.5(3)
C49 C47 C53 C45 -59.4(3)
C50 C45 C53 C47 -60.5(3)
C48 C45 C53 C47 59.9(3)
C55 O4 C56 C57 166.11(18)
U1 O4 C56 C57 -54.3(2)
C58 O5 C57 C56 -174.19(18)
U1 O5 C57 C56 -34.7(2)
O4 C56 C57 O5 57.0(2)
C101 O102 C103 C104 -69.1(5)
O102 C103 C104 O104 86.7(4)
C103 C104 O104 C106 -172.0(3)
