#------------------------------------------------------------------------------
#$Date: 2016-02-18 17:37:37 +0200 (Thu, 18 Feb 2016) $
#$Revision: 176729 $
#$URL: svn://www.crystallography.net/cod/cif/1/51/72/1517201.cif $
#------------------------------------------------------------------------------
#
# This file is available in the Crystallography Open Database (COD),
# http://www.crystallography.net/
#
# All data on this site have been placed in the public domain by the
# contributors.
#
data_1517201
loop_
_publ_author_name
'Chen, Bo'
'Scott, Mark E.'
'Adams, Bruce A.'
'Hrovat, David A.'
'Borden, Weston Thatcher'
'Lautens, Mark'
_publ_section_title
;
 Computational and (13)C Investigations of the Diazadienes and Oxazadienes
 Formed via the Rearrangement of Methylenecyclopropyl Hydrazones and
 Oximes.
;
_journal_issue                   15
_journal_name_full               'Organic letters'
_journal_page_first              3930
_journal_page_last               3933
_journal_paper_doi               10.1021/ol501710m
_journal_volume                  16
_journal_year                    2014
_chemical_formula_moiety         'C13 H16 N2 O2 S'
_chemical_formula_sum            'C13 H16 N2 O2 S'
_chemical_formula_weight         264.34
_chemical_name_systematic
; 
 ? 
;
_space_group_IT_number           14
_symmetry_cell_setting           monoclinic
_symmetry_space_group_name_Hall  '-P 2ybc'
_symmetry_space_group_name_H-M   'P 1 21/c 1'
_atom_sites_solution_hydrogens   geom
_atom_sites_solution_primary     direct
_atom_sites_solution_secondary   difmap
_audit_creation_method           SHELXL-97
_cell_angle_alpha                90.00
_cell_angle_beta                 105.908(4)
_cell_angle_gamma                90.00
_cell_formula_units_Z            4
_cell_length_a                   8.3852(6)
_cell_length_b                   14.3202(12)
_cell_length_c                   11.2113(7)
_cell_measurement_reflns_used    7542
_cell_measurement_temperature    150(1)
_cell_measurement_theta_max      27.5
_cell_measurement_theta_min      2.6
_cell_volume                     1294.67(17)
_computing_cell_refinement       'Denzo-SMN (Otwinowski & Minor, 1997)'
_computing_data_collection       'Collect (Nonius BV, 1997-2002)'
_computing_data_reduction        Denzo-SMN
_computing_molecular_graphics    'SHELXTL V6.1'
_computing_publication_material  'SHELXTL V6.1'
_computing_structure_refinement  'SHELXTL V6.1(Sheldrick, 2001)'
_computing_structure_solution    'SIR-92 (Altomare et al., 1994)'
_diffrn_ambient_temperature      150(1)
_diffrn_detector_area_resol_mean 9
_diffrn_measured_fraction_theta_full 0.999
_diffrn_measured_fraction_theta_max 0.999
_diffrn_measurement_device_type  'Bruker-Nonius KappaCCD'
_diffrn_measurement_method       '\f scans and \w scans with \k offsets'
_diffrn_radiation_monochromator  graphite
_diffrn_radiation_source         'fine-focus sealed tube'
_diffrn_radiation_type           MoK\a
_diffrn_radiation_wavelength     0.71073
_diffrn_reflns_av_R_equivalents  0.1017
_diffrn_reflns_av_sigmaI/netI    0.0986
_diffrn_reflns_limit_h_max       9
_diffrn_reflns_limit_h_min       -9
_diffrn_reflns_limit_k_max       17
_diffrn_reflns_limit_k_min       -16
_diffrn_reflns_limit_l_max       13
_diffrn_reflns_limit_l_min       -13
_diffrn_reflns_number            7542
_diffrn_reflns_theta_full        25.00
_diffrn_reflns_theta_max         25.00
_diffrn_reflns_theta_min         2.84
_diffrn_standards_number         0
_exptl_absorpt_coefficient_mu    0.246
_exptl_absorpt_correction_T_max  1.047
_exptl_absorpt_correction_T_min  0.541
_exptl_absorpt_correction_type   multi-scan
_exptl_absorpt_process_details
; 
multi-scan from symmetry-related measurements 
 Sortav (Blessing 1995) 
;
_exptl_crystal_colour            colourless
_exptl_crystal_density_diffrn    1.356
_exptl_crystal_density_method    'not measured'
_exptl_crystal_description       needle
_exptl_crystal_F_000             560
_exptl_crystal_size_max          0.36
_exptl_crystal_size_mid          0.18
_exptl_crystal_size_min          0.14
_refine_diff_density_max         0.417
_refine_diff_density_min         -0.447
_refine_diff_density_rms         0.094
_refine_ls_extinction_method     none
_refine_ls_goodness_of_fit_ref   1.026
_refine_ls_hydrogen_treatment    constr
_refine_ls_matrix_type           full
_refine_ls_number_parameters     166
_refine_ls_number_reflns         2274
_refine_ls_number_restraints     0
_refine_ls_restrained_S_all      1.026
_refine_ls_R_factor_all          0.1265
_refine_ls_R_factor_gt           0.0612
_refine_ls_shift/su_max          0.003
_refine_ls_shift/su_mean         0.000
_refine_ls_structure_factor_coef Fsqd
_refine_ls_weighting_details
'calc w=1/[\s^2^(Fo^2^)+(0.0953P)^2^] where P=(Fo^2^+2Fc^2^)/3'
_refine_ls_weighting_scheme      calc
_refine_ls_wR_factor_gt          0.1388
_refine_ls_wR_factor_ref         0.1802
_reflns_number_gt                1314
_reflns_number_total             2274
_reflns_threshold_expression     I>2\s(I)
_iucr_refine_instructions_details
;
TITL k0676 in P2(1)/c
CELL 0.71073   8.3852  14.3202  11.2113  90.000 105.908  90.000
ZERR    4  0.0006  0.0012  0.0007  0.0000  0.0043  0.0000
LATT  1
SYMM - X, 1/2 + Y, 1/2 - Z
SFAC C  H  N  S  O
DISP C    0.00330   0.00160
DISP H    0.00000   0.00000
DISP N    0.00610   0.00330
DISP S    0.12460   0.12340
DISP O    0.01060   0.00600
UNIT    52   64    8    4    8
OMIT -3  50
TEMP -123
SIZE 0.36, 0.18, 0.14
ACTA
BOND $H
FMAP 2
PLAN  20
L.S.  4
WGHT      0.0953      0.0000 
FVAR       0.26564
S1    4    0.651484    0.297883    0.091973    11.00000    0.02763    0.02860 =
         0.03465   -0.00016    0.00752   -0.00109
O1    5    0.516065    0.324144   -0.011315    11.00000    0.02454    0.04300 =
         0.03777    0.00104    0.00149   -0.00168
O2    5    0.655770    0.207041    0.145780    11.00000    0.03492    0.02364 =
         0.04688    0.00211    0.01352   -0.00005
N1    3    0.818945    0.308121    0.041676    11.00000    0.02190    0.02672 =
         0.03159    0.00006    0.00435   -0.00086
N2    3    0.963180    0.287932    0.139333    11.00000    0.02731    0.02468 =
         0.03088    0.00055    0.00326    0.00107
C1    1    0.822469    0.387072   -0.041767    11.00000    0.03236    0.02570 =
         0.02943    0.00119    0.00273   -0.00213
AFIX  23
H1A   2    0.813465    0.446650    0.000710    11.00000   -1.20000
H1B   2    0.727235    0.382681   -0.116733    11.00000   -1.20000
AFIX   0
C2    1    0.981483    0.385073   -0.078184    11.00000    0.02920    0.02629 =
         0.03055   -0.00270    0.00461   -0.00434
C3    1    1.113576    0.346334   -0.000963    11.00000    0.02913    0.03012 =
         0.03349   -0.00466    0.01024   -0.00519
AFIX  43
H3A   2    1.215983    0.344980   -0.021820    11.00000   -1.20000
AFIX   0
C4    1    1.102291    0.305239    0.117430    11.00000    0.02835    0.02320 =
         0.02963   -0.00284    0.00500    0.00232
C5    1    0.980113    0.431674   -0.197706    11.00000    0.04797    0.03433 =
         0.03193    0.00270    0.00978   -0.00732
AFIX 137
H5A   2    1.092777    0.432431   -0.207364    11.00000   -1.50000
H5B   2    0.939902    0.495900   -0.197325    11.00000   -1.50000
H5C   2    0.906759    0.397255   -0.266820    11.00000   -1.50000
AFIX   0
C6    1    1.256295    0.282596    0.216509    11.00000    0.03206    0.04341 =
         0.03277    0.00232    0.00394    0.00338
AFIX 137
H6A   2    1.226921    0.252068    0.285813    11.00000   -1.50000
H6B   2    1.317514    0.340256    0.245723    11.00000   -1.50000
H6C   2    1.325736    0.240572    0.183155    11.00000   -1.50000
AFIX   0
C7    1    0.669704    0.380976    0.210743    11.00000    0.02947    0.02478 =
         0.03227    0.00299    0.01001    0.00133
C8    1    0.580566    0.463709    0.189287    11.00000    0.02844    0.03546 =
         0.02656    0.00475    0.00099    0.00419
AFIX  43
H8A   2    0.510924    0.477496    0.108974    11.00000   -1.20000
AFIX   0
C9    1    0.593978    0.526483    0.286526    11.00000    0.03347    0.02745 =
         0.04092   -0.00213    0.00783    0.00472
AFIX  43
H9A   2    0.530926    0.582510    0.272158    11.00000   -1.20000
AFIX   0
C10   1    0.697173    0.508819    0.403395    11.00000    0.03446    0.03164 =
         0.03190    0.00139    0.01000    0.00254
C11   1    0.787770    0.425294    0.422256    11.00000    0.04352    0.03732 =
         0.02668    0.00404    0.00592    0.00669
AFIX  43
H11A  2    0.859760    0.412002    0.501903    11.00000   -1.20000
AFIX   0
C12   1    0.774239    0.362122    0.327282    11.00000    0.04366    0.02802 =
         0.03304    0.00600    0.01209    0.00879
AFIX  43
H12A  2    0.836412    0.305788    0.341658    11.00000   -1.20000
AFIX   0
C13   1    0.709207    0.575100    0.509412    11.00000    0.05472    0.04331 =
         0.04144   -0.00293    0.01103    0.00755
AFIX 137
H13A  2    0.622598    0.622802    0.484764    11.00000   -1.50000
H13B  2    0.818355    0.605192    0.531515    11.00000   -1.50000
H13C  2    0.694518    0.540532    0.581098    11.00000   -1.50000
 
HKLF 4
 
REM  k0676 in P2(1)/c
REM R1 =  0.0613 for   1314 Fo > 4sig(Fo)  and  0.1266 for all   2274 data
REM    167 parameters refined using      0 restraints
 
END  
     

REM Highest difference peak  0.417,  deepest hole -0.446,  1-sigma level  0.094
Q1    1   0.6429  0.1087  0.0846  11.00000  0.05    0.39
Q2    1   1.2756  0.3534 -0.0220  11.00000  0.05    0.36
Q3    1   1.3546  0.2859  0.0484  11.00000  0.05    0.36
Q4    1   1.0273  0.1966  0.2273  11.00000  0.05    0.34
Q5    1   1.2743  0.2301  0.1836  11.00000  0.05    0.31
Q6    1   0.5444  0.3947 -0.0943  11.00000  0.05    0.31
Q7    1   0.5253  0.5942  0.5170  11.00000  0.05    0.31
Q8    1   1.1039  0.2036  0.0653  11.00000  0.05    0.30
Q9    1   1.2848  0.2044  0.2722  11.00000  0.05    0.30
Q10   1   0.4516  0.5889  0.2216  11.00000  0.05    0.30
Q11   1   0.5783  0.6176  0.2420  11.00000  0.05    0.29
Q12   1   0.9966  0.5773 -0.2554  11.00000  0.05    0.27
Q13   1   0.7998  0.5777  0.5790  11.00000  0.05    0.27
Q14   1   0.7189  0.4572  0.0059  11.00000  0.05    0.27
Q15   1   0.6149  0.5886  0.1641  11.00000  0.05    0.26
Q16   1   1.4592  0.2195  0.2947  11.00000  0.05    0.26
Q17   1   0.3953  0.3173 -0.1395  11.00000  0.05    0.26
Q18   1   1.1598  0.4333 -0.2506  11.00000  0.05    0.26
Q19   1   1.1757  0.1775  0.3070  11.00000  0.05    0.26
Q20   1   0.3509  0.3522 -0.1159  11.00000  0.05    0.26
;
_cod_data_source_file            ol501710m_si_002.cif
_cod_data_source_block           k0676
_cod_depositor_comments
;
The following automatic conversions were performed:

'_symmetry_cell_setting' value 'Monoclinic' changed to 'monoclinic'
according to
/usr/data/users/saulius/crontab/automatic-downloads/rss-feeds/ACS/lib/dictionaries/cif_core.dic
dictionary named 'cif_core.dic' version 2.4.2 from 2011-04-26.

Automatic conversion script
Id: cif_fix_values 2281 2013-09-26 08:29:07Z andrius 

 Adding full bibliography for 1517201.cif.
;
_cod_original_cell_volume        1294.67(16)
_cod_original_sg_symbol_H-M      'P 21/c'
_cod_database_code               1517201
loop_
_symmetry_equiv_pos_as_xyz
'x, y, z'
'-x, y+1/2, -z+1/2'
'-x, -y, -z'
'x, -y-1/2, z-1/2'
loop_
_atom_site_label
_atom_site_type_symbol
_atom_site_fract_x
_atom_site_fract_y
_atom_site_fract_z
_atom_site_U_iso_or_equiv
_atom_site_adp_type
_atom_site_occupancy
_atom_site_symmetry_multiplicity
_atom_site_calc_flag
_atom_site_refinement_flags
S1 S 0.65148(12) 0.29788(7) 0.09197(9) 0.0306(4) Uani 1 1 d .
O1 O 0.5161(3) 0.32414(18) -0.0113(2) 0.0367(7) Uani 1 1 d .
O2 O 0.6558(3) 0.20705(17) 0.1458(2) 0.0348(7) Uani 1 1 d .
N1 N 0.8189(4) 0.30812(19) 0.0417(3) 0.0275(8) Uani 1 1 d .
N2 N 0.9632(4) 0.2879(2) 0.1393(3) 0.0287(8) Uani 1 1 d .
C1 C 0.8225(5) 0.3871(3) -0.0418(3) 0.0304(9) Uani 1 1 d .
H1A H 0.8135 0.4466 0.0007 0.037 Uiso 1 1 calc R
H1B H 0.7272 0.3827 -0.1167 0.037 Uiso 1 1 calc R
C2 C 0.9815(5) 0.3851(2) -0.0782(3) 0.0295(9) Uani 1 1 d .
C3 C 1.1136(5) 0.3463(3) -0.0010(3) 0.0307(9) Uani 1 1 d .
H3A H 1.2160 0.3450 -0.0218 0.037 Uiso 1 1 calc R
C4 C 1.1023(5) 0.3052(2) 0.1174(3) 0.0278(9) Uani 1 1 d .
C5 C 0.9801(5) 0.4317(3) -0.1977(3) 0.0385(11) Uani 1 1 d .
H5A H 1.0928 0.4324 -0.2074 0.058 Uiso 1 1 calc R
H5B H 0.9399 0.4959 -0.1973 0.058 Uiso 1 1 calc R
H5C H 0.9067 0.3973 -0.2668 0.058 Uiso 1 1 calc R
C6 C 1.2563(5) 0.2826(3) 0.2165(4) 0.0372(10) Uani 1 1 d .
H6A H 1.2269 0.2520 0.2858 0.056 Uiso 1 1 calc R
H6B H 1.3174 0.3403 0.2458 0.056 Uiso 1 1 calc R
H6C H 1.3258 0.2406 0.1831 0.056 Uiso 1 1 calc R
C7 C 0.6697(5) 0.3810(2) 0.2107(3) 0.0287(9) Uani 1 1 d .
C8 C 0.5806(4) 0.4637(3) 0.1893(3) 0.0316(9) Uani 1 1 d .
H8A H 0.5110 0.4775 0.1090 0.038 Uiso 1 1 calc R
C9 C 0.5940(5) 0.5265(3) 0.2865(4) 0.0346(10) Uani 1 1 d .
H9A H 0.5310 0.5825 0.2722 0.041 Uiso 1 1 calc R
C10 C 0.6972(5) 0.5088(3) 0.4034(3) 0.0326(10) Uani 1 1 d .
C11 C 0.7878(5) 0.4253(3) 0.4223(4) 0.0367(10) Uani 1 1 d .
H11A H 0.8597 0.4120 0.5019 0.044 Uiso 1 1 calc R
C12 C 0.7742(5) 0.3621(3) 0.3273(3) 0.0347(10) Uani 1 1 d .
H12A H 0.8364 0.3058 0.3417 0.042 Uiso 1 1 calc R
C13 C 0.7092(6) 0.5751(3) 0.5094(4) 0.0470(12) Uani 1 1 d .
H13A H 0.6227 0.6229 0.4847 0.071 Uiso 1 1 calc R
H13B H 0.8184 0.6051 0.5316 0.071 Uiso 1 1 calc R
H13C H 0.6943 0.5405 0.5810 0.071 Uiso 1 1 calc R
loop_
_atom_site_aniso_label
_atom_site_aniso_U_11
_atom_site_aniso_U_22
_atom_site_aniso_U_33
_atom_site_aniso_U_23
_atom_site_aniso_U_13
_atom_site_aniso_U_12
S1 0.0278(6) 0.0287(6) 0.0348(6) -0.0002(5) 0.0076(5) -0.0011(4)
O1 0.0247(15) 0.0432(17) 0.0379(16) 0.0010(13) 0.0015(13) -0.0017(12)
O2 0.0351(17) 0.0238(14) 0.0471(17) 0.0021(13) 0.0135(14) -0.0001(12)
N1 0.0220(17) 0.0268(18) 0.0317(18) 0.0001(14) 0.0044(15) -0.0009(14)
N2 0.0274(19) 0.0248(17) 0.0310(18) 0.0005(14) 0.0033(15) 0.0011(14)
C1 0.033(2) 0.026(2) 0.030(2) 0.0011(18) 0.0028(18) -0.0021(17)
C2 0.029(2) 0.026(2) 0.031(2) -0.0027(18) 0.0047(18) -0.0043(17)
C3 0.029(2) 0.030(2) 0.034(2) -0.0047(19) 0.0103(19) -0.0052(18)
C4 0.028(2) 0.023(2) 0.030(2) -0.0029(17) 0.0050(18) 0.0023(17)
C5 0.048(3) 0.034(2) 0.032(2) 0.0027(19) 0.010(2) -0.0073(19)
C6 0.032(2) 0.044(3) 0.033(2) 0.0023(19) 0.0040(19) 0.0034(19)
C7 0.030(2) 0.025(2) 0.032(2) 0.0031(18) 0.0101(18) 0.0013(17)
C8 0.029(2) 0.036(2) 0.027(2) 0.0048(18) 0.0011(17) 0.0042(18)
C9 0.034(2) 0.028(2) 0.041(2) -0.0022(19) 0.008(2) 0.0047(18)
C10 0.035(2) 0.032(2) 0.032(2) 0.0014(18) 0.0100(19) 0.0026(19)
C11 0.044(3) 0.037(2) 0.027(2) 0.004(2) 0.0060(19) 0.007(2)
C12 0.044(3) 0.028(2) 0.033(2) 0.0060(19) 0.012(2) 0.0088(18)
C13 0.055(3) 0.043(3) 0.042(3) -0.003(2) 0.011(2) 0.008(2)
loop_
_atom_type_symbol
_atom_type_description
_atom_type_scat_dispersion_real
_atom_type_scat_dispersion_imag
_atom_type_scat_source
C C 0.0033 0.0016 'International Tables Vol C Tables 4.2.6.8 and 6.1.1.4'
H H 0.0000 0.0000 'International Tables Vol C Tables 4.2.6.8 and 6.1.1.4'
N N 0.0061 0.0033 'International Tables Vol C Tables 4.2.6.8 and 6.1.1.4'
S S 0.1246 0.1234 'International Tables Vol C Tables 4.2.6.8 and 6.1.1.4'
O O 0.0106 0.0060 'International Tables Vol C Tables 4.2.6.8 and 6.1.1.4'
loop_
_geom_angle_atom_site_label_1
_geom_angle_atom_site_label_2
_geom_angle_atom_site_label_3
_geom_angle
O2 S1 O1 120.17(16)
O2 S1 N1 107.36(15)
O1 S1 N1 105.05(15)
O2 S1 C7 107.99(17)
O1 S1 C7 108.61(17)
N1 S1 C7 106.96(16)
N2 N1 C1 119.0(3)
N2 N1 S1 110.0(2)
C1 N1 S1 116.8(2)
C4 N2 N1 116.1(3)
N1 C1 C2 109.4(3)
N1 C1 H1A 109.8
C2 C1 H1A 109.8
N1 C1 H1B 109.8
C2 C1 H1B 109.8
H1A C1 H1B 108.2
C3 C2 C5 124.9(4)
C3 C2 C1 118.5(3)
C5 C2 C1 116.6(3)
C2 C3 C4 120.3(4)
C2 C3 H3A 119.8
C4 C3 H3A 119.8
N2 C4 C3 122.3(3)
N2 C4 C6 117.6(3)
C3 C4 C6 120.0(3)
C2 C5 H5A 109.5
C2 C5 H5B 109.5
H5A C5 H5B 109.5
C2 C5 H5C 109.5
H5A C5 H5C 109.5
H5B C5 H5C 109.5
C4 C6 H6A 109.5
C4 C6 H6B 109.5
H6A C6 H6B 109.5
C4 C6 H6C 109.5
H6A C6 H6C 109.5
H6B C6 H6C 109.5
C12 C7 C8 120.1(4)
C12 C7 S1 118.9(3)
C8 C7 S1 121.0(3)
C7 C8 C9 119.4(4)
C7 C8 H8A 120.3
C9 C8 H8A 120.3
C10 C9 C8 121.3(4)
C10 C9 H9A 119.4
C8 C9 H9A 119.4
C9 C10 C11 118.2(4)
C9 C10 C13 121.6(4)
C11 C10 C13 120.2(4)
C12 C11 C10 121.1(4)
C12 C11 H11A 119.4
C10 C11 H11A 119.4
C11 C12 C7 119.8(4)
C11 C12 H12A 120.1
C7 C12 H12A 120.1
C10 C13 H13A 109.5
C10 C13 H13B 109.5
H13A C13 H13B 109.5
C10 C13 H13C 109.5
H13A C13 H13C 109.5
H13B C13 H13C 109.5
loop_
_geom_bond_atom_site_label_1
_geom_bond_atom_site_label_2
_geom_bond_distance
S1 O2 1.430(3)
S1 O1 1.432(3)
S1 N1 1.657(3)
S1 C7 1.761(4)
N1 N2 1.421(4)
N1 C1 1.473(5)
N2 C4 1.280(5)
C1 C2 1.498(5)
C1 H1A 0.9900
C1 H1B 0.9900
C2 C3 1.326(5)
C2 C5 1.494(5)
C3 C4 1.479(5)
C3 H3A 0.9500
C4 C6 1.490(5)
C5 H5A 0.9800
C5 H5B 0.9800
C5 H5C 0.9800
C6 H6A 0.9800
C6 H6B 0.9800
C6 H6C 0.9800
C7 C12 1.386(5)
C7 C8 1.386(5)
C8 C9 1.394(5)
C8 H8A 0.9500
C9 C10 1.381(5)
C9 H9A 0.9500
C10 C11 1.401(5)
C10 C13 1.503(5)
C11 C12 1.378(5)
C11 H11A 0.9500
C12 H12A 0.9500
C13 H13A 0.9800
C13 H13B 0.9800
C13 H13C 0.9800
