#------------------------------------------------------------------------------
#$Date: 2016-03-13 15:27:14 +0200 (Sun, 13 Mar 2016) $
#$Revision: 178181 $
#$URL: svn://www.crystallography.net/cod/cif/1/54/28/1542815.cif $
#------------------------------------------------------------------------------
#
# This file is available in the Crystallography Open Database (COD),
# http://www.crystallography.net/
#
# All data on this site have been placed in the public domain by the
# contributors.
#
data_1542815
loop_
_publ_author_name
'Bolla, Geetha'
'Mittapalli, Sudhir'
'Nangia, Ashwini'
_publ_section_title
;
 Modularity and three-dimensional isostructurality of novel synthons in
 sulfonamide--lactam cocrystals
;
_journal_coeditor_code           ZX5004
_journal_issue                   4
_journal_name_full               IUCrJ
_journal_page_first              389
_journal_page_last               401
_journal_paper_doi               10.1107/S2052252515004960
_journal_volume                  2
_journal_year                    2015
_chemical_formula_moiety         C6H8N2O2S,C6H11NO
_chemical_formula_sum            'C12 H19 N3 O3 S'
_chemical_formula_weight         285.36
_chemical_melting_point          368
_chemical_name_systematic
; 
 ? 
;
_space_group_IT_number           19
_symmetry_cell_setting           orthorhombic
_symmetry_space_group_name_Hall  'P 2ac 2ab'
_symmetry_space_group_name_H-M   'P 21 21 21'
_atom_sites_solution_hydrogens   geom
_atom_sites_solution_primary     direct
_atom_sites_solution_secondary   difmap
_audit_creation_method           SHELXL-97
_cell_angle_alpha                90.00
_cell_angle_beta                 90.00
_cell_angle_gamma                90.00
_cell_formula_units_Z            4
_cell_length_a                   7.0957(6)
_cell_length_b                   13.1280(13)
_cell_length_c                   15.3425(18)
_cell_measurement_reflns_used    831
_cell_measurement_temperature    298(2)
_cell_measurement_theta_max      24.6592
_cell_measurement_theta_min      2.6498
_cell_volume                     1429.2(3)
_computing_structure_refinement  'SHELXL-97 (Sheldrick, 1997)'
_computing_structure_solution    'SHELXS-97 (Sheldrick, 1990)'
_diffrn_ambient_temperature      298(2)
_diffrn_measured_fraction_theta_full 0.999
_diffrn_measured_fraction_theta_max 0.999
_diffrn_measurement_device_type  'Xcalibur, Eos, Gemini'
_diffrn_measurement_method       '\w scans'
_diffrn_radiation_monochromator  graphite
_diffrn_radiation_source         'fine-focus sealed tube'
_diffrn_radiation_type           MoK\a
_diffrn_radiation_wavelength     0.71073
_diffrn_reflns_av_R_equivalents  0.0417
_diffrn_reflns_av_sigmaI/netI    0.1027
_diffrn_reflns_limit_h_max       8
_diffrn_reflns_limit_h_min       -7
_diffrn_reflns_limit_k_max       15
_diffrn_reflns_limit_k_min       -8
_diffrn_reflns_limit_l_max       15
_diffrn_reflns_limit_l_min       -18
_diffrn_reflns_number            3692
_diffrn_reflns_theta_full        24.71
_diffrn_reflns_theta_max         24.71
_diffrn_reflns_theta_min         2.66
_exptl_absorpt_coefficient_mu    0.235
_exptl_absorpt_correction_T_max  1.00000
_exptl_absorpt_correction_T_min  0.66726
_exptl_absorpt_correction_type   multi-scan
_exptl_absorpt_process_details   SADABS
_exptl_crystal_colour            COLORLES
_exptl_crystal_density_diffrn    1.326
_exptl_crystal_density_method    'not measured'
_exptl_crystal_description       PLATE
_exptl_crystal_F_000             608
_exptl_crystal_size_max          0.22
_exptl_crystal_size_mid          0.20
_exptl_crystal_size_min          0.20
_refine_diff_density_max         0.181
_refine_diff_density_min         -0.207
_refine_diff_density_rms         0.036
_refine_ls_abs_structure_details 'Flack H D (1983), Acta Cryst. A39, 876-881'
_refine_ls_abs_structure_Flack   0.03(14)
_refine_ls_extinction_method     none
_refine_ls_goodness_of_fit_ref   0.901
_refine_ls_hydrogen_treatment    mixed
_refine_ls_matrix_type           full
_refine_ls_number_parameters     179
_refine_ls_number_reflns         2354
_refine_ls_number_restraints     0
_refine_ls_restrained_S_all      0.901
_refine_ls_R_factor_all          0.1062
_refine_ls_R_factor_gt           0.0529
_refine_ls_shift/su_max          0.000
_refine_ls_shift/su_mean         0.000
_refine_ls_structure_factor_coef Fsqd
_refine_ls_weighting_details
'calc w=1/[\s^2^(Fo^2^)+(0.0117P)^2^+0.0000P] where P=(Fo^2^+2Fc^2^)/3'
_refine_ls_weighting_scheme      calc
_refine_ls_wR_factor_gt          0.0638
_refine_ls_wR_factor_ref         0.0796
_reflns_number_gt                1318
_reflns_number_total             2354
_reflns_threshold_expression     >2sigma(I)
_cod_data_source_file            zx5004.cif
_cod_data_source_block           SNACPR
_cod_original_cell_volume        1429.2(2)
_cod_database_code               1542815
_publcif_datablock.id            {e9413eff-41ec-4c5a-b79f-512e0244b8cb}
loop_
_symmetry_equiv_pos_as_xyz
'x, y, z'
'-x+1/2, -y, z+1/2'
'x+1/2, -y+1/2, -z'
'-x, y+1/2, -z+1/2'
loop_
_atom_site_label
_atom_site_type_symbol
_atom_site_fract_x
_atom_site_fract_y
_atom_site_fract_z
_atom_site_U_iso_or_equiv
_atom_site_adp_type
_atom_site_occupancy
_atom_site_symmetry_multiplicity
_atom_site_calc_flag
_atom_site_refinement_flags
C11 C 0.1350(6) 0.8611(4) 0.0600(3) 0.0805(15) Uani 1 1 d .
H11A H 0.1392 0.8645 -0.0031 0.097 Uiso 1 1 calc R
H11B H 0.0275 0.8195 0.0761 0.097 Uiso 1 1 calc R
S1 S 0.90765(16) 0.13847(9) 0.87588(9) 0.0599(3) Uani 1 1 d .
O1 O 1.1072(3) 0.1426(2) 0.8626(2) 0.0811(10) Uani 1 1 d .
O3 O 0.4913(4) 1.1203(2) 0.0183(2) 0.0694(9) Uani 1 1 d .
N3 N 0.2251(5) 1.0426(3) 0.0533(2) 0.0660(11) Uani 1 1 d .
H3A H 0.1666 1.0888 0.0242 0.079 Uiso 1 1 calc R
O2 O 0.8131(4) 0.0430(2) 0.8621(2) 0.0735(9) Uani 1 1 d .
C4 C 0.6531(7) 0.3859(3) 0.7083(3) 0.0562(13) Uani 1 1 d .
C3 C 0.8468(6) 0.3754(4) 0.7166(3) 0.0591(13) Uani 1 1 d .
H3 H 0.9266 0.4201 0.6875 0.071 Uiso 1 1 calc R
C5 C 0.5389(6) 0.3167(3) 0.7511(3) 0.0640(14) Uani 1 1 d .
H5 H 0.4088 0.3224 0.7459 0.077 Uiso 1 1 calc R
C6 C 0.6134(6) 0.2399(3) 0.8012(3) 0.0583(13) Uani 1 1 d .
H6 H 0.5342 0.1944 0.8297 0.070 Uiso 1 1 calc R
N1 N 0.8708(5) 0.1686(3) 0.9750(3) 0.0589(12) Uani 1 1 d .
H1A H 0.899(6) 0.224(3) 0.997(3) 0.071 Uiso 1 1 d .
H1B H 0.759(5) 0.148(3) 0.999(2) 0.071 Uiso 1 1 d .
N2 N 0.5796(6) 0.4620(3) 0.6575(2) 0.0828(13) Uani 1 1 d .
H2A H 0.6504 0.5161 0.6592 0.099 Uiso 1 1 d R
H2B H 0.4693 0.4781 0.6780 0.099 Uiso 1 1 d R
C1 C 0.8058(6) 0.2308(3) 0.8090(3) 0.0462(11) Uani 1 1 d .
C7 C 0.4103(7) 1.0499(4) 0.0552(3) 0.0565(12) Uani 1 1 d .
C2 C 0.9211(6) 0.3000(3) 0.7672(3) 0.0542(12) Uani 1 1 d .
H2 H 1.0511 0.2951 0.7736 0.065 Uiso 1 1 calc R
C9 C 0.4958(7) 0.8638(4) 0.0672(3) 0.0813(15) Uani 1 1 d .
H9A H 0.6011 0.8224 0.0865 0.098 Uiso 1 1 calc R
H9B H 0.5021 0.8679 0.0041 0.098 Uiso 1 1 calc R
C8 C 0.5188(6) 0.9689(4) 0.1037(3) 0.0744(15) Uani 1 1 d .
H8A H 0.6516 0.9866 0.1029 0.089 Uiso 1 1 calc R
H8B H 0.4780 0.9686 0.1641 0.089 Uiso 1 1 calc R
C12 C 0.1071(6) 0.9650(3) 0.0948(3) 0.0763(15) Uani 1 1 d .
H12A H -0.0242 0.9837 0.0875 0.092 Uiso 1 1 calc R
H12B H 0.1336 0.9644 0.1568 0.092 Uiso 1 1 calc R
C10 C 0.3129(7) 0.8098(3) 0.0924(3) 0.0804(15) Uani 1 1 d .
H10A H 0.3166 0.7409 0.0696 0.096 Uiso 1 1 calc R
H10B H 0.3070 0.8051 0.1554 0.096 Uiso 1 1 calc R
loop_
_atom_site_aniso_label
_atom_site_aniso_U_11
_atom_site_aniso_U_22
_atom_site_aniso_U_33
_atom_site_aniso_U_23
_atom_site_aniso_U_13
_atom_site_aniso_U_12
C11 0.081(3) 0.064(3) 0.096(4) -0.006(4) -0.008(3) -0.013(3)
S1 0.0530(6) 0.0473(6) 0.0794(9) 0.0010(9) -0.0003(7) 0.0085(7)
O1 0.0404(15) 0.084(2) 0.119(3) 0.014(3) 0.0020(17) 0.0153(18)
O3 0.0709(19) 0.0444(18) 0.093(2) 0.007(2) 0.0158(18) -0.0027(18)
N3 0.058(2) 0.046(2) 0.094(3) 0.016(3) -0.011(2) 0.006(2)
O2 0.079(2) 0.0400(16) 0.102(2) -0.005(2) -0.006(2) 0.0026(17)
C4 0.069(3) 0.051(3) 0.048(3) -0.006(3) -0.011(2) -0.001(3)
C3 0.056(3) 0.063(3) 0.058(3) 0.003(3) 0.008(2) -0.007(3)
C5 0.046(3) 0.062(3) 0.085(4) 0.003(3) -0.016(3) -0.003(3)
C6 0.043(3) 0.052(3) 0.080(4) 0.005(3) -0.007(2) -0.008(2)
N1 0.065(2) 0.047(2) 0.064(3) 0.004(2) 0.001(2) -0.001(2)
N2 0.093(3) 0.069(3) 0.086(3) 0.007(3) -0.006(3) 0.011(3)
C1 0.047(2) 0.045(3) 0.046(3) -0.002(3) -0.004(2) 0.006(2)
C7 0.052(3) 0.051(3) 0.067(3) -0.002(3) -0.005(3) 0.012(3)
C2 0.044(2) 0.060(3) 0.059(3) 0.000(3) -0.001(2) 0.008(3)
C9 0.086(3) 0.061(3) 0.097(4) 0.002(4) -0.003(3) 0.032(4)
C8 0.049(3) 0.075(3) 0.100(4) 0.007(4) -0.003(3) 0.011(3)
C12 0.057(3) 0.064(3) 0.107(4) 0.002(4) -0.006(3) -0.003(3)
C10 0.101(4) 0.046(3) 0.094(4) 0.005(3) 0.007(4) 0.004(3)
loop_
_atom_type_symbol
_atom_type_description
_atom_type_scat_dispersion_real
_atom_type_scat_dispersion_imag
_atom_type_scat_source
C C 0.0033 0.0016 'International Tables Vol C Tables 4.2.6.8 and 6.1.1.4'
H H 0.0000 0.0000 'International Tables Vol C Tables 4.2.6.8 and 6.1.1.4'
N N 0.0061 0.0033 'International Tables Vol C Tables 4.2.6.8 and 6.1.1.4'
O O 0.0106 0.0060 'International Tables Vol C Tables 4.2.6.8 and 6.1.1.4'
S S 0.1246 0.1234 'International Tables Vol C Tables 4.2.6.8 and 6.1.1.4'
loop_
_geom_angle_atom_site_label_1
_geom_angle_atom_site_label_2
_geom_angle_atom_site_label_3
_geom_angle
C12 C11 C10 113.8(4)
C12 C11 H11A 108.8
C10 C11 H11A 108.8
C12 C11 H11B 108.8
C10 C11 H11B 108.8
H11A C11 H11B 107.7
O1 S1 O2 118.3(2)
O1 S1 N1 106.8(2)
O2 S1 N1 106.3(2)
O1 S1 C1 107.5(2)
O2 S1 C1 109.03(19)
N1 S1 C1 108.7(2)
C7 N3 C12 127.7(4)
C7 N3 H3A 116.2
C12 N3 H3A 116.2
N2 C4 C5 121.7(4)
N2 C4 C3 120.1(5)
C5 C4 C3 118.1(4)
C2 C3 C4 120.5(4)
C2 C3 H3 119.8
C4 C3 H3 119.8
C6 C5 C4 121.5(4)
C6 C5 H5 119.2
C4 C5 H5 119.2
C5 C6 C1 119.6(4)
C5 C6 H6 120.2
C1 C6 H6 120.2
S1 N1 H1A 124(4)
S1 N1 H1B 117(2)
H1A N1 H1B 108(4)
C4 N2 H2A 111.0
C4 N2 H2B 108.3
H2A N2 H2B 108.0
C6 C1 C2 119.4(4)
C6 C1 S1 121.5(3)
C2 C1 S1 119.0(3)
O3 C7 N3 120.8(4)
O3 C7 C8 121.3(4)
N3 C7 C8 117.9(4)
C3 C2 C1 120.8(4)
C3 C2 H2 119.6
C1 C2 H2 119.6
C8 C9 C10 115.1(4)
C8 C9 H9A 108.5
C10 C9 H9A 108.5
C8 C9 H9B 108.5
C10 C9 H9B 108.5
H9A C9 H9B 107.5
C9 C8 C7 114.1(4)
C9 C8 H8A 108.7
C7 C8 H8A 108.7
C9 C8 H8B 108.7
C7 C8 H8B 108.7
H8A C8 H8B 107.6
N3 C12 C11 114.1(4)
N3 C12 H12A 108.7
C11 C12 H12A 108.7
N3 C12 H12B 108.7
C11 C12 H12B 108.7
H12A C12 H12B 107.6
C11 C10 C9 114.8(4)
C11 C10 H10A 108.6
C9 C10 H10A 108.6
C11 C10 H10B 108.6
C9 C10 H10B 108.6
H10A C10 H10B 107.6
loop_
_geom_bond_atom_site_label_1
_geom_bond_atom_site_label_2
_geom_bond_distance
C11 C12 1.478(6)
C11 C10 1.514(5)
C11 H11A 0.9700
C11 H11B 0.9700
S1 O1 1.431(2)
S1 O2 1.437(3)
S1 N1 1.593(4)
S1 C1 1.745(4)
O3 C7 1.227(5)
N3 C7 1.318(5)
N3 C12 1.465(5)
N3 H3A 0.8600
C4 N2 1.370(5)
C4 C5 1.383(5)
C4 C3 1.387(5)
C3 C2 1.364(5)
C3 H3 0.9300
C5 C6 1.373(5)
C5 H5 0.9300
C6 C1 1.376(5)
C6 H6 0.9300
N1 H1A 0.83(4)
N1 H1B 0.91(3)
N2 H2A 0.8706
N2 H2B 0.8693
C1 C2 1.380(5)
C7 C8 1.510(5)
C2 H2 0.9300
C9 C8 1.499(6)
C9 C10 1.528(5)
C9 H9A 0.9700
C9 H9B 0.9700
C8 H8A 0.9700
C8 H8B 0.9700
C12 H12A 0.9700
C12 H12B 0.9700
C10 H10A 0.9700
C10 H10B 0.9700
