#------------------------------------------------------------------------------
#$Date: 2016-08-07 11:03:28 +0300 (Sun, 07 Aug 2016) $
#$Revision: 185142 $
#$URL: file:///home/coder/svn-repositories/cod/cif/1/54/25/1542559.cif $
#------------------------------------------------------------------------------
#
# This file is available in the Crystallography Open Database (COD),
# http://www.crystallography.net/
#
# All data on this site have been placed in the public domain by the
# contributors.
#
data_1542559
loop_
_publ_author_name
'Chiou, Tzung-Wen'
'Tseng, Yen-Ming'
'Lu, Tsai-Te'
'Weng, Tsu-Chien'
'Sokaras, Dimosthenes'
'Ho, Wei-Chieh'
'Kuo, Ting-Shen'
'Jang, Ling-Yun'
'Lee, Jyh-Fu'
'Liaw, Wen-Feng'
_publ_section_title
;
 [NiIII(OMe)]-mediated reductive activation of CO2affording a Ni(\k1-OCO)
 complex
;
_journal_issue                   6
_journal_name_full               'Chem. Sci.'
_journal_page_first              3640
_journal_paper_doi               10.1039/C5SC04652A
_journal_volume                  7
_journal_year                    2016
_chemical_formula_sum            'C68 H74 N2 Ni O2 P3 S3 Si3'
_chemical_formula_weight         1283.36
_chemical_name_systematic
; 
 ? 
;
_space_group_IT_number           61
_symmetry_cell_setting           orthorhombic
_symmetry_space_group_name_Hall  '-P 2ac 2ab'
_symmetry_space_group_name_H-M   'P b c a'
_atom_sites_solution_hydrogens   geom
_atom_sites_solution_primary     direct
_atom_sites_solution_secondary   difmap
_audit_block_doi                 10.5517/cc1k5gz5
_audit_creation_method           SHELXL-97
_audit_update_record
;
2015-11-05 deposited with the CCDC.
2016-02-16 downloaded from the CCDC.
;
_cell_angle_alpha                90.00
_cell_angle_beta                 90.00
_cell_angle_gamma                90.00
_cell_formula_units_Z            8
_cell_length_a                   27.5733(7)
_cell_length_b                   17.0409(5)
_cell_length_c                   27.8585(8)
_cell_measurement_reflns_used    9966
_cell_measurement_temperature    100(2)
_cell_measurement_theta_max      26.3511
_cell_measurement_theta_min      2.3977
_cell_volume                     13090.0(6)
_computing_cell_refinement       'SAINT V7.34A (Bruker AXS, 2006)'
_computing_data_collection       'APEX2 (Bruker AXS, 2010)'
_computing_data_reduction        'SAINT V7.34A (Bruker AXS, 2006)'
_computing_molecular_graphics    'SHELXTL (Sheldrick, 2008)'
_computing_publication_material  SHELXTL
_computing_structure_refinement  'SHELXL-97 (Sheldrick, 2008)'
_computing_structure_solution    'SHELXS-97 (Sheldrick, 2008)'
_diffrn_ambient_temperature      100(2)
_diffrn_detector_area_resol_mean 8.333
_diffrn_measured_fraction_theta_full 0.998
_diffrn_measured_fraction_theta_max 0.998
_diffrn_measurement_device_type  'Bruker APEX-II CCD'
_diffrn_measurement_method       '\f and \w scans'
_diffrn_radiation_monochromator  graphite
_diffrn_radiation_source         'fine-focus sealed tube'
_diffrn_radiation_type           MoK\a
_diffrn_radiation_wavelength     0.71073
_diffrn_reflns_av_R_equivalents  0.0359
_diffrn_reflns_av_sigmaI/netI    0.0216
_diffrn_reflns_limit_h_max       34
_diffrn_reflns_limit_h_min       -32
_diffrn_reflns_limit_k_max       21
_diffrn_reflns_limit_k_min       -21
_diffrn_reflns_limit_l_max       34
_diffrn_reflns_limit_l_min       -34
_diffrn_reflns_number            113110
_diffrn_reflns_theta_full        26.39
_diffrn_reflns_theta_max         26.39
_diffrn_reflns_theta_min         1.46
_exptl_absorpt_coefficient_mu    0.566
_exptl_absorpt_correction_T_max  0.7454
_exptl_absorpt_correction_T_min  0.7083
_exptl_absorpt_correction_type   multi-scan
_exptl_absorpt_process_details   'SADABS V2008/1 (Bruker AXS)'
_exptl_crystal_colour            Black
_exptl_crystal_density_diffrn    1.302
_exptl_crystal_density_meas      ?
_exptl_crystal_density_method    'not measured'
_exptl_crystal_description       Lump
_exptl_crystal_F_000             5400
_exptl_crystal_size_max          0.25
_exptl_crystal_size_mid          0.25
_exptl_crystal_size_min          0.18
_refine_diff_density_max         0.829
_refine_diff_density_min         -0.629
_refine_diff_density_rms         0.190
_refine_ls_extinction_coef       0.00282(13)
_refine_ls_extinction_expression Fc^*^=kFc[1+0.001xFc^2^\l^3^/sin(2\q)]^-1/4^
_refine_ls_extinction_method     SHELXL
_refine_ls_goodness_of_fit_ref   1.171
_refine_ls_hydrogen_treatment    constr
_refine_ls_matrix_type           full
_refine_ls_number_parameters     749
_refine_ls_number_reflns         13383
_refine_ls_number_restraints     0
_refine_ls_restrained_S_all      1.171
_refine_ls_R_factor_all          0.0499
_refine_ls_R_factor_gt           0.0382
_refine_ls_shift/su_max          0.003
_refine_ls_shift/su_mean         0.000
_refine_ls_structure_factor_coef Fsqd
_refine_ls_weighting_details
'calc w=1/[\s^2^(Fo^2^)+(0.0743P)^2^+5.8765P] where P=(Fo^2^+2Fc^2^)/3'
_refine_ls_weighting_scheme      calc
_refine_ls_wR_factor_gt          0.1060
_refine_ls_wR_factor_ref         0.1276
_reflns_number_gt                11346
_reflns_number_total             13383
_reflns_threshold_expression     >2sigma(I)
_cod_data_source_file            c5sc04652a2.cif
_cod_data_source_block           100652lt
_cod_depositor_comments
;
The following automatic conversions were performed:

'_exptl_crystal_density_meas' value 'not measured' was changed to '?'
- the value is perceived as not measured.

Automatic conversion script
Id: cif_fix_values 4268 2015-11-12 08:31:59Z antanas 

 Adding full bibliography for 1542558--1542560.cif.
;
_cod_database_code               1542559
loop_
_symmetry_equiv_pos_as_xyz
'x, y, z'
'-x+1/2, -y, z+1/2'
'-x, y+1/2, -z+1/2'
'x+1/2, -y+1/2, -z'
'-x, -y, -z'
'x-1/2, y, -z-1/2'
'x, -y-1/2, z-1/2'
'-x-1/2, y-1/2, z'
loop_
_atom_site_label
_atom_site_type_symbol
_atom_site_fract_x
_atom_site_fract_y
_atom_site_fract_z
_atom_site_U_iso_or_equiv
_atom_site_adp_type
_atom_site_occupancy
_atom_site_symmetry_multiplicity
_atom_site_calc_flag
_atom_site_refinement_flags
Ni1 Ni 0.289945(10) 0.468059(15) 0.182749(10) 0.01497(9) Uani 1 1 d .
P1 P 0.470261(19) 0.81006(3) 0.054889(19) 0.01535(13) Uani 1 1 d .
P2 P 0.560595(19) 0.74113(3) 0.094400(19) 0.01497(13) Uani 1 1 d .
P3 P 0.256454(19) 0.36149(3) 0.161752(19) 0.01373(12) Uani 1 1 d .
S1 S 0.25721(2) 0.52338(3) 0.115389(19) 0.01812(13) Uani 1 1 d .
S2 S 0.238753(19) 0.47043(3) 0.244532(19) 0.01826(13) Uani 1 1 d .
S3 S 0.358726(19) 0.40655(3) 0.156060(19) 0.01779(13) Uani 1 1 d .
Si1 Si 0.20877(3) 0.55749(4) 0.00684(3) 0.02655(16) Uani 1 1 d .
Si2 Si 0.14819(3) 0.44071(4) 0.32518(2) 0.02812(17) Uani 1 1 d .
Si3 Si 0.45182(2) 0.27222(4) 0.17280(2) 0.02210(15) Uani 1 1 d .
N1 N 0.52618(6) 0.79714(11) 0.06437(6) 0.0172(4) Uani 1 1 d .
N2 N 0.32380(7) 0.55998(11) 0.20578(7) 0.0226(4) Uani 1 1 d .
O1 O 0.38780(7) 0.58643(12) 0.26080(7) 0.0380(5) Uani 1 1 d .
O2 O 0.29511(9) 0.64218(14) 0.38677(7) 0.0507(6) Uani 1 1 d .
C1 C 0.43473(8) 0.72168(13) 0.05322(8) 0.0190(4) Uani 1 1 d .
C2 C 0.43857(9) 0.67057(15) 0.01382(9) 0.0269(5) Uani 1 1 d .
H2 H 0.4582 0.6842 -0.0129 0.032 Uiso 1 1 calc R
C3 C 0.41349(10) 0.60006(16) 0.01427(10) 0.0341(6) Uani 1 1 d .
H3 H 0.4158 0.5656 -0.0125 0.041 Uiso 1 1 calc R
C4 C 0.38514(9) 0.57933(16) 0.05329(10) 0.0326(6) Uani 1 1 d .
H4 H 0.3685 0.5305 0.0534 0.039 Uiso 1 1 calc R
C5 C 0.38099(9) 0.62939(15) 0.09218(9) 0.0273(5) Uani 1 1 d .
H5 H 0.3613 0.6152 0.1188 0.033 Uiso 1 1 calc R
C6 C 0.40577(8) 0.70053(14) 0.09222(8) 0.0211(5) Uani 1 1 d .
H6 H 0.4030 0.7349 0.1189 0.025 Uiso 1 1 calc R
C7 C 0.46461(8) 0.85600(13) -0.00294(8) 0.0191(4) Uani 1 1 d .
C8 C 0.42155(9) 0.85152(15) -0.02906(8) 0.0263(5) Uani 1 1 d .
H8 H 0.3947 0.8233 -0.0165 0.032 Uiso 1 1 calc R
C9 C 0.41797(9) 0.88841(16) -0.07342(9) 0.0313(6) Uani 1 1 d .
H9 H 0.3885 0.8858 -0.0911 0.038 Uiso 1 1 calc R
C10 C 0.45717(10) 0.92890(15) -0.09185(9) 0.0301(6) Uani 1 1 d .
H10 H 0.4547 0.9537 -0.1223 0.036 Uiso 1 1 calc R
C11 C 0.49992(10) 0.93354(15) -0.06617(9) 0.0290(5) Uani 1 1 d .
H11 H 0.5267 0.9617 -0.0790 0.035 Uiso 1 1 calc R
C12 C 0.50405(9) 0.89740(14) -0.02178(8) 0.0234(5) Uani 1 1 d .
H12 H 0.5335 0.9007 -0.0042 0.028 Uiso 1 1 calc R
C13 C 0.44378(7) 0.87327(13) 0.09969(8) 0.0166(4) Uani 1 1 d .
C14 C 0.39916(8) 0.91021(14) 0.09244(8) 0.0224(5) Uani 1 1 d .
H14 H 0.3823 0.9034 0.0630 0.027 Uiso 1 1 calc R
C15 C 0.37946(8) 0.95687(14) 0.12828(9) 0.0239(5) Uani 1 1 d .
H15 H 0.3493 0.9826 0.1231 0.029 Uiso 1 1 calc R
C16 C 0.40342(9) 0.96622(13) 0.17152(9) 0.0218(5) Uani 1 1 d .
H16 H 0.3893 0.9972 0.1962 0.026 Uiso 1 1 calc R
C17 C 0.44768(9) 0.93067(14) 0.17878(8) 0.0253(5) Uani 1 1 d .
H17 H 0.4643 0.9378 0.2083 0.030 Uiso 1 1 calc R
C18 C 0.46806(8) 0.88461(14) 0.14315(8) 0.0221(5) Uani 1 1 d .
H18 H 0.4987 0.8606 0.1483 0.027 Uiso 1 1 calc R
C19 C 0.59282(7) 0.79618(13) 0.13909(8) 0.0182(4) Uani 1 1 d .
C20 C 0.59574(8) 0.87767(14) 0.13423(8) 0.0233(5) Uani 1 1 d .
H20 H 0.5798 0.9032 0.1083 0.028 Uiso 1 1 calc R
C21 C 0.62209(9) 0.92135(16) 0.16739(9) 0.0304(6) Uani 1 1 d .
H21 H 0.6235 0.9769 0.1646 0.036 Uiso 1 1 calc R
C22 C 0.64613(9) 0.88416(17) 0.20422(9) 0.0332(6) Uani 1 1 d .
H22 H 0.6646 0.9141 0.2264 0.040 Uiso 1 1 calc R
C23 C 0.64356(9) 0.80349(17) 0.20922(9) 0.0297(6) Uani 1 1 d .
H23 H 0.6604 0.7784 0.2347 0.036 Uiso 1 1 calc R
C24 C 0.61646(8) 0.75916(15) 0.17718(8) 0.0231(5) Uani 1 1 d .
H24 H 0.6140 0.7039 0.1811 0.028 Uiso 1 1 calc R
C25 C 0.60419(8) 0.69781(13) 0.05449(8) 0.0189(4) Uani 1 1 d .
C26 C 0.64695(9) 0.66462(16) 0.07191(9) 0.0299(6) Uani 1 1 d .
H26 H 0.6542 0.6672 0.1052 0.036 Uiso 1 1 calc R
C27 C 0.67882(9) 0.62784(17) 0.04068(10) 0.0336(6) Uani 1 1 d .
H27 H 0.7081 0.6056 0.0525 0.040 Uiso 1 1 calc R
C28 C 0.66785(9) 0.62365(16) -0.00769(9) 0.0316(6) Uani 1 1 d .
H28 H 0.6893 0.5975 -0.0290 0.038 Uiso 1 1 calc R
C29 C 0.62624(10) 0.65704(18) -0.02504(10) 0.0379(7) Uani 1 1 d .
H29 H 0.6193 0.6547 -0.0584 0.045 Uiso 1 1 calc R
C30 C 0.59410(9) 0.69432(17) 0.00589(9) 0.0310(6) Uani 1 1 d .
H30 H 0.5653 0.7174 -0.0063 0.037 Uiso 1 1 calc R
C31 C 0.52943(8) 0.66170(13) 0.12387(8) 0.0200(5) Uani 1 1 d .
C32 C 0.52190(9) 0.59179(14) 0.09917(10) 0.0295(6) Uani 1 1 d .
H32 H 0.5369 0.5834 0.0689 0.035 Uiso 1 1 calc R
C33 C 0.49241(11) 0.53445(16) 0.11897(12) 0.0417(7) Uani 1 1 d .
H33 H 0.4872 0.4866 0.1022 0.050 Uiso 1 1 calc R
C34 C 0.47071(10) 0.54653(17) 0.16278(12) 0.0418(8) Uani 1 1 d .
H34 H 0.4501 0.5073 0.1758 0.050 Uiso 1 1 calc R
C35 C 0.47852(9) 0.61499(18) 0.18815(10) 0.0353(6) Uani 1 1 d .
H35 H 0.4640 0.6223 0.2187 0.042 Uiso 1 1 calc R
C36 C 0.50785(8) 0.67299(15) 0.16852(9) 0.0245(5) Uani 1 1 d .
H36 H 0.5132 0.7205 0.1856 0.029 Uiso 1 1 calc R
C37 C 0.23827(7) 0.36804(13) 0.09992(7) 0.0159(4) Uani 1 1 d .
C38 C 0.23577(7) 0.44445(13) 0.08106(8) 0.0151(4) Uani 1 1 d .
C39 C 0.21636(8) 0.45658(13) 0.03459(8) 0.0183(4) Uani 1 1 d .
C40 C 0.20245(8) 0.38991(14) 0.00863(8) 0.0199(5) Uani 1 1 d .
H40 H 0.1897 0.3967 -0.0228 0.024 Uiso 1 1 calc R
C41 C 0.20645(8) 0.31392(14) 0.02684(8) 0.0207(5) Uani 1 1 d .
H41 H 0.1970 0.2702 0.0079 0.025 Uiso 1 1 calc R
C42 C 0.22437(8) 0.30290(13) 0.07274(8) 0.0192(4) Uani 1 1 d .
H42 H 0.2272 0.2515 0.0857 0.023 Uiso 1 1 calc R
C43 C 0.16849(12) 0.62179(19) 0.04383(12) 0.0484(8) Uani 1 1 d .
H43A H 0.1690 0.6753 0.0309 0.073 Uiso 1 1 calc R
H43B H 0.1801 0.6224 0.0771 0.073 Uiso 1 1 calc R
H43C H 0.1353 0.6014 0.0429 0.073 Uiso 1 1 calc R
C44 C 0.26907(11) 0.60450(17) -0.00236(10) 0.0389(7) Uani 1 1 d .
H44A H 0.2910 0.5672 -0.0180 0.058 Uiso 1 1 calc R
H44B H 0.2826 0.6199 0.0288 0.058 Uiso 1 1 calc R
H44C H 0.2653 0.6511 -0.0226 0.058 Uiso 1 1 calc R
C45 C 0.18029(12) 0.54482(18) -0.05332(10) 0.0414(7) Uani 1 1 d .
H45A H 0.1474 0.5241 -0.0495 0.062 Uiso 1 1 calc R
H45B H 0.1996 0.5081 -0.0724 0.062 Uiso 1 1 calc R
H45C H 0.1789 0.5957 -0.0697 0.062 Uiso 1 1 calc R
C46 C 0.20345(7) 0.34185(13) 0.19763(8) 0.0165(4) Uani 1 1 d .
C47 C 0.19799(7) 0.39128(13) 0.23752(8) 0.0168(4) Uani 1 1 d .
C48 C 0.15991(8) 0.37774(13) 0.27087(8) 0.0207(5) Uani 1 1 d .
C49 C 0.12861(8) 0.31512(14) 0.26075(8) 0.0231(5) Uani 1 1 d .
H49 H 0.1031 0.3042 0.2827 0.028 Uiso 1 1 calc R
C50 C 0.13292(8) 0.26812(14) 0.22020(9) 0.0232(5) Uani 1 1 d .
H50 H 0.1102 0.2274 0.2142 0.028 Uiso 1 1 calc R
C51 C 0.17081(8) 0.28155(13) 0.18859(8) 0.0200(5) Uani 1 1 d .
H51 H 0.1744 0.2497 0.1608 0.024 Uiso 1 1 calc R
C52 C 0.12466(12) 0.53808(17) 0.30544(11) 0.0436(7) Uani 1 1 d .
H52A H 0.1183 0.5709 0.3336 0.065 Uiso 1 1 calc R
H52B H 0.0945 0.5307 0.2873 0.065 Uiso 1 1 calc R
H52C H 0.1488 0.5638 0.2850 0.065 Uiso 1 1 calc R
C53 C 0.20242(11) 0.4536(2) 0.36431(11) 0.0445(7) Uani 1 1 d .
H53A H 0.2283 0.4794 0.3461 0.067 Uiso 1 1 calc R
H53B H 0.2137 0.4021 0.3753 0.067 Uiso 1 1 calc R
H53C H 0.1938 0.4859 0.3921 0.067 Uiso 1 1 calc R
C54 C 0.09944(11) 0.39361(19) 0.36195(10) 0.0411(7) Uani 1 1 d .
H54A H 0.1090 0.3398 0.3699 0.062 Uiso 1 1 calc R
H54B H 0.0691 0.3928 0.3436 0.062 Uiso 1 1 calc R
H54C H 0.0947 0.4236 0.3916 0.062 Uiso 1 1 calc R
C55 C 0.29853(7) 0.28190(13) 0.17014(7) 0.0154(4) Uani 1 1 d .
C56 C 0.34729(8) 0.30590(12) 0.16608(7) 0.0163(4) Uani 1 1 d .
C57 C 0.38475(8) 0.24982(13) 0.17217(8) 0.0191(4) Uani 1 1 d .
C58 C 0.37030(8) 0.17239(14) 0.18175(8) 0.0227(5) Uani 1 1 d .
H58 H 0.3948 0.1336 0.1855 0.027 Uiso 1 1 calc R
C59 C 0.32232(9) 0.14945(13) 0.18606(8) 0.0227(5) Uani 1 1 d .
H59 H 0.3145 0.0963 0.1929 0.027 Uiso 1 1 calc R
C60 C 0.28589(8) 0.20435(13) 0.18041(8) 0.0179(4) Uani 1 1 d .
H60 H 0.2528 0.1896 0.1835 0.021 Uiso 1 1 calc R
C61 C 0.46734(9) 0.34573(15) 0.22034(9) 0.0278(5) Uani 1 1 d .
H61A H 0.4635 0.3217 0.2521 0.042 Uiso 1 1 calc R
H61B H 0.4457 0.3911 0.2176 0.042 Uiso 1 1 calc R
H61C H 0.5010 0.3629 0.2162 0.042 Uiso 1 1 calc R
C62 C 0.47205(9) 0.30508(17) 0.11205(9) 0.0324(6) Uani 1 1 d .
H62A H 0.5069 0.3160 0.1127 0.049 Uiso 1 1 calc R
H62B H 0.4544 0.3528 0.1030 0.049 Uiso 1 1 calc R
H62C H 0.4654 0.2637 0.0885 0.049 Uiso 1 1 calc R
C63 C 0.48478(9) 0.17991(16) 0.18779(10) 0.0335(6) Uani 1 1 d .
H63A H 0.4767 0.1394 0.1641 0.050 Uiso 1 1 calc R
H63B H 0.4752 0.1621 0.2199 0.050 Uiso 1 1 calc R
H63C H 0.5198 0.1897 0.1872 0.050 Uiso 1 1 calc R
C64 C 0.35555(8) 0.57147(13) 0.23336(9) 0.0227(5) Uani 1 1 d .
C65 C 0.28477(15) 0.7225(2) 0.38860(13) 0.0588(9) Uani 1 1 d .
H65A H 0.3152 0.7532 0.3897 0.071 Uiso 1 1 calc R
H65B H 0.2655 0.7348 0.4176 0.071 Uiso 1 1 calc R
C66 C 0.25656(13) 0.7426(2) 0.34428(12) 0.0519(8) Uani 1 1 d .
H66A H 0.2706 0.7892 0.3282 0.062 Uiso 1 1 calc R
H66B H 0.2222 0.7536 0.3522 0.062 Uiso 1 1 calc R
C67 C 0.26064(16) 0.6713(2) 0.31291(14) 0.0683(12) Uani 1 1 d .
H67A H 0.2292 0.6437 0.3105 0.082 Uiso 1 1 calc R
H67B H 0.2718 0.6856 0.2803 0.082 Uiso 1 1 calc R
C68 C 0.29727(15) 0.6222(2) 0.33798(13) 0.0605(10) Uani 1 1 d .
H68A H 0.2899 0.5658 0.3335 0.073 Uiso 1 1 calc R
H68B H 0.3301 0.6327 0.3250 0.073 Uiso 1 1 calc R
loop_
_atom_site_aniso_label
_atom_site_aniso_U_11
_atom_site_aniso_U_22
_atom_site_aniso_U_33
_atom_site_aniso_U_23
_atom_site_aniso_U_13
_atom_site_aniso_U_12
Ni1 0.01679(16) 0.01297(15) 0.01515(16) -0.00077(10) -0.00031(10) -0.00093(10)
P1 0.0123(3) 0.0188(3) 0.0149(3) 0.0006(2) 0.00070(19) 0.0005(2)
P2 0.0131(3) 0.0171(3) 0.0148(3) -0.0005(2) 0.00042(19) 0.0007(2)
P3 0.0141(3) 0.0136(3) 0.0135(3) 0.0000(2) -0.00046(19) -0.0003(2)
S1 0.0212(3) 0.0147(3) 0.0185(3) 0.0016(2) -0.0026(2) -0.0002(2)
S2 0.0187(3) 0.0191(3) 0.0169(3) -0.0035(2) 0.0011(2) -0.0002(2)
S3 0.0169(3) 0.0149(3) 0.0215(3) -0.0005(2) 0.0029(2) -0.0018(2)
Si1 0.0301(4) 0.0248(4) 0.0247(4) 0.0048(3) -0.0054(3) 0.0014(3)
Si2 0.0303(4) 0.0340(4) 0.0201(3) -0.0021(3) 0.0064(3) 0.0023(3)
Si3 0.0169(3) 0.0278(4) 0.0216(3) -0.0019(3) -0.0020(2) 0.0007(3)
N1 0.0130(9) 0.0199(9) 0.0186(9) 0.0026(7) 0.0006(7) 0.0013(7)
N2 0.0277(10) 0.0152(9) 0.0250(10) -0.0034(8) 0.0024(8) -0.0042(8)
O1 0.0350(10) 0.0432(11) 0.0359(11) 0.0072(9) -0.0110(8) -0.0140(9)
O2 0.0687(15) 0.0516(14) 0.0316(11) 0.0012(10) -0.0044(10) 0.0124(11)
C1 0.0148(10) 0.0209(11) 0.0211(11) 0.0000(9) -0.0021(8) -0.0012(8)
C2 0.0295(13) 0.0304(13) 0.0207(12) -0.0035(10) 0.0003(10) -0.0042(10)
C3 0.0407(15) 0.0305(14) 0.0311(14) -0.0106(11) -0.0038(12) -0.0076(12)
C4 0.0305(13) 0.0281(13) 0.0392(15) -0.0002(11) -0.0056(11) -0.0101(11)
C5 0.0218(12) 0.0297(13) 0.0304(13) 0.0046(10) 0.0006(10) -0.0056(10)
C6 0.0170(11) 0.0250(12) 0.0214(11) 0.0008(9) 0.0003(8) -0.0001(9)
C7 0.0193(11) 0.0210(11) 0.0169(11) 0.0009(8) 0.0017(8) 0.0053(9)
C8 0.0201(11) 0.0374(14) 0.0214(12) 0.0023(10) -0.0001(9) 0.0056(10)
C9 0.0284(13) 0.0428(15) 0.0227(12) 0.0018(11) -0.0038(10) 0.0138(11)
C10 0.0423(15) 0.0285(13) 0.0194(12) 0.0038(10) 0.0025(10) 0.0139(11)
C11 0.0391(14) 0.0231(13) 0.0249(13) 0.0057(10) 0.0066(11) -0.0013(11)
C12 0.0262(12) 0.0211(11) 0.0229(12) 0.0002(9) 0.0006(9) -0.0009(9)
C13 0.0148(10) 0.0174(10) 0.0176(10) 0.0003(8) 0.0028(8) -0.0012(8)
C14 0.0165(11) 0.0256(12) 0.0251(12) -0.0048(9) -0.0025(9) 0.0007(9)
C15 0.0157(11) 0.0219(12) 0.0340(13) -0.0035(10) 0.0015(9) 0.0018(9)
C16 0.0258(12) 0.0161(11) 0.0236(12) -0.0010(9) 0.0064(9) 0.0008(9)
C17 0.0318(13) 0.0265(13) 0.0176(11) -0.0005(9) -0.0017(9) 0.0049(10)
C18 0.0208(11) 0.0245(12) 0.0210(11) 0.0011(9) -0.0004(9) 0.0055(9)
C19 0.0142(10) 0.0235(11) 0.0169(10) -0.0025(9) 0.0014(8) -0.0014(8)
C20 0.0214(11) 0.0250(12) 0.0235(12) 0.0002(9) 0.0010(9) -0.0041(9)
C21 0.0318(14) 0.0288(13) 0.0306(13) -0.0045(11) 0.0016(11) -0.0102(11)
C22 0.0277(13) 0.0460(16) 0.0259(13) -0.0119(12) -0.0008(10) -0.0118(12)
C23 0.0216(12) 0.0499(16) 0.0177(12) -0.0016(11) -0.0028(9) -0.0014(11)
C24 0.0208(11) 0.0301(13) 0.0185(11) -0.0001(9) 0.0001(9) 0.0007(10)
C25 0.0161(10) 0.0204(11) 0.0202(11) -0.0023(9) 0.0022(8) 0.0008(8)
C26 0.0253(13) 0.0426(15) 0.0219(12) 0.0020(11) 0.0014(10) 0.0112(11)
C27 0.0234(12) 0.0438(16) 0.0335(14) 0.0036(12) 0.0054(11) 0.0135(11)
C28 0.0269(13) 0.0362(15) 0.0317(14) -0.0080(11) 0.0099(10) 0.0048(11)
C29 0.0294(14) 0.0608(19) 0.0236(13) -0.0161(13) 0.0026(11) 0.0082(13)
C30 0.0219(12) 0.0481(16) 0.0229(13) -0.0073(11) -0.0016(9) 0.0105(11)
C31 0.0163(10) 0.0198(11) 0.0238(12) 0.0051(9) -0.0021(9) -0.0007(8)
C32 0.0265(12) 0.0215(12) 0.0405(15) -0.0010(11) -0.0049(11) 0.0009(10)
C33 0.0372(16) 0.0211(14) 0.067(2) 0.0053(13) -0.0138(15) -0.0067(11)
C34 0.0313(15) 0.0354(16) 0.059(2) 0.0257(14) -0.0110(13) -0.0135(12)
C35 0.0228(12) 0.0501(17) 0.0330(14) 0.0204(13) -0.0039(10) -0.0080(12)
C36 0.0206(11) 0.0295(13) 0.0235(12) 0.0065(10) -0.0017(9) -0.0026(10)
C37 0.0137(10) 0.0191(11) 0.0148(10) -0.0003(8) -0.0004(8) 0.0009(8)
C38 0.0114(9) 0.0182(11) 0.0157(10) -0.0012(8) 0.0011(8) 0.0001(8)
C39 0.0148(10) 0.0222(11) 0.0177(11) 0.0019(9) 0.0015(8) 0.0007(8)
C40 0.0146(10) 0.0286(12) 0.0165(11) 0.0003(9) -0.0003(8) 0.0005(9)
C41 0.0193(11) 0.0233(12) 0.0196(11) -0.0048(9) -0.0017(8) -0.0009(9)
C42 0.0192(11) 0.0195(11) 0.0191(11) 0.0010(9) 0.0000(8) 0.0013(9)
C43 0.0534(19) 0.0455(18) 0.0462(18) 0.0055(14) -0.0033(15) 0.0223(15)
C44 0.0501(17) 0.0357(15) 0.0310(14) 0.0072(12) -0.0079(12) -0.0169(13)
C45 0.0488(18) 0.0386(16) 0.0368(16) 0.0122(12) -0.0194(13) -0.0056(13)
C46 0.0149(10) 0.0187(11) 0.0158(10) 0.0023(8) -0.0006(8) 0.0019(8)
C47 0.0149(10) 0.0187(11) 0.0169(10) 0.0013(8) -0.0021(8) 0.0029(8)
C48 0.0185(11) 0.0246(12) 0.0190(11) 0.0020(9) 0.0005(9) 0.0031(9)
C49 0.0166(11) 0.0278(12) 0.0250(12) 0.0060(10) 0.0035(9) 0.0006(9)
C50 0.0181(11) 0.0217(12) 0.0300(13) 0.0032(9) -0.0006(9) -0.0032(9)
C51 0.0184(11) 0.0191(11) 0.0227(11) 0.0000(9) -0.0016(9) 0.0004(9)
C52 0.059(2) 0.0364(16) 0.0355(16) -0.0048(12) 0.0163(14) 0.0133(14)
C53 0.0467(17) 0.060(2) 0.0264(15) -0.0090(13) -0.0027(13) -0.0037(15)
C54 0.0398(16) 0.0538(18) 0.0298(15) 0.0004(13) 0.0141(12) -0.0003(13)
C55 0.0166(10) 0.0173(10) 0.0123(10) -0.0015(8) -0.0019(8) 0.0008(8)
C56 0.0203(11) 0.0158(10) 0.0126(10) -0.0012(8) -0.0001(8) -0.0003(8)
C57 0.0178(10) 0.0201(11) 0.0193(11) -0.0031(8) -0.0020(8) 0.0014(9)
C58 0.0212(11) 0.0183(11) 0.0286(13) -0.0021(9) -0.0039(9) 0.0053(9)
C59 0.0261(12) 0.0138(11) 0.0282(12) 0.0008(9) -0.0043(10) -0.0015(9)
C60 0.0173(11) 0.0179(11) 0.0184(11) 0.0000(8) -0.0027(8) -0.0032(8)
C61 0.0219(12) 0.0351(14) 0.0265(13) -0.0024(10) -0.0040(10) -0.0043(10)
C62 0.0228(12) 0.0488(17) 0.0257(13) 0.0002(11) -0.0003(10) -0.0063(11)
C63 0.0228(12) 0.0408(16) 0.0370(15) -0.0049(12) -0.0048(11) 0.0095(11)
C64 0.0253(12) 0.0173(11) 0.0255(12) 0.0022(9) 0.0065(10) -0.0036(9)
C65 0.074(2) 0.050(2) 0.052(2) -0.0067(16) -0.0172(18) -0.0001(18)
C66 0.054(2) 0.0495(19) 0.052(2) 0.0101(16) -0.0063(15) -0.0024(16)
C67 0.089(3) 0.057(2) 0.059(2) -0.0148(18) -0.040(2) 0.013(2)
C68 0.070(2) 0.067(2) 0.045(2) -0.0107(17) -0.0026(17) 0.007(2)
loop_
_atom_type_symbol
_atom_type_description
_atom_type_scat_dispersion_real
_atom_type_scat_dispersion_imag
_atom_type_scat_source
C C 0.0033 0.0016 'International Tables Vol C Tables 4.2.6.8 and 6.1.1.4'
H H 0.0000 0.0000 'International Tables Vol C Tables 4.2.6.8 and 6.1.1.4'
N N 0.0061 0.0033 'International Tables Vol C Tables 4.2.6.8 and 6.1.1.4'
O O 0.0106 0.0060 'International Tables Vol C Tables 4.2.6.8 and 6.1.1.4'
Si Si 0.0817 0.0704 'International Tables Vol C Tables 4.2.6.8 and 6.1.1.4'
P P 0.1023 0.0942 'International Tables Vol C Tables 4.2.6.8 and 6.1.1.4'
S S 0.1246 0.1234 'International Tables Vol C Tables 4.2.6.8 and 6.1.1.4'
Ni Ni 0.3393 1.1124 'International Tables Vol C Tables 4.2.6.8 and 6.1.1.4'
loop_
_geom_angle_atom_site_label_1
_geom_angle_atom_site_label_2
_geom_angle_atom_site_label_3
_geom_angle
N2 Ni1 P3 175.03(6)
N2 Ni1 S2 92.00(6)
P3 Ni1 S2 87.29(2)
N2 Ni1 S1 97.41(6)
P3 Ni1 S1 87.41(2)
S2 Ni1 S1 112.14(2)
N2 Ni1 S3 94.51(6)
P3 Ni1 S3 83.06(2)
S2 Ni1 S3 141.64(2)
S1 Ni1 S3 104.42(2)
N1 P1 C1 114.81(10)
N1 P1 C7 107.16(10)
C1 P1 C7 107.12(11)
N1 P1 C13 111.27(10)
C1 P1 C13 107.33(10)
C7 P1 C13 108.97(10)
N1 P2 C19 110.36(10)
N1 P2 C25 108.75(10)
C19 P2 C25 108.24(10)
N1 P2 C31 114.05(10)
C19 P2 C31 108.23(10)
C25 P2 C31 107.02(11)
C37 P3 C55 110.54(10)
C37 P3 C46 108.47(10)
C55 P3 C46 108.11(10)
C37 P3 Ni1 109.43(7)
C55 P3 Ni1 109.20(7)
C46 P3 Ni1 111.06(7)
C38 S1 Ni1 105.34(7)
C47 S2 Ni1 107.70(7)
C56 S3 Ni1 104.19(7)
C44 Si1 C45 107.59(13)
C44 Si1 C43 110.72(15)
C45 Si1 C43 108.26(15)
C44 Si1 C39 110.32(12)
C45 Si1 C39 107.94(12)
C43 Si1 C39 111.85(13)
C53 Si2 C52 110.31(16)
C53 Si2 C54 107.86(14)
C52 Si2 C54 107.06(14)
C53 Si2 C48 113.53(12)
C52 Si2 C48 109.26(12)
C54 Si2 C48 108.59(12)
C63 Si3 C62 108.08(13)
C63 Si3 C61 107.13(12)
C62 Si3 C61 111.85(12)
C63 Si3 C57 108.00(11)
C62 Si3 C57 110.17(11)
C61 Si3 C57 111.44(10)
P1 N1 P2 139.16(12)
C64 N2 Ni1 135.08(18)
C65 O2 C68 106.3(3)
C6 C1 C2 119.4(2)
C6 C1 P1 120.53(17)
C2 C1 P1 119.90(17)
C3 C2 C1 119.5(2)
C3 C2 H2 120.2
C1 C2 H2 120.2
C4 C3 C2 120.7(2)
C4 C3 H3 119.7
C2 C3 H3 119.7
C5 C4 C3 120.3(2)
C5 C4 H4 119.9
C3 C4 H4 119.9
C4 C5 C6 119.8(2)
C4 C5 H5 120.1
C6 C5 H5 120.1
C5 C6 C1 120.3(2)
C5 C6 H6 119.8
C1 C6 H6 119.8
C8 C7 C12 119.6(2)
C8 C7 P1 121.16(18)
C12 C7 P1 119.24(17)
C9 C8 C7 120.0(2)
C9 C8 H8 120.0
C7 C8 H8 120.0
C10 C9 C8 120.1(2)
C10 C9 H9 120.0
C8 C9 H9 120.0
C9 C10 C11 120.2(2)
C9 C10 H10 119.9
C11 C10 H10 119.9
C10 C11 C12 120.5(2)
C10 C11 H11 119.8
C12 C11 H11 119.8
C11 C12 C7 119.7(2)
C11 C12 H12 120.2
C7 C12 H12 120.2
C14 C13 C18 119.0(2)
C14 C13 P1 121.72(17)
C18 C13 P1 119.24(16)
C15 C14 C13 119.9(2)
C15 C14 H14 120.0
C13 C14 H14 120.0
C16 C15 C14 120.4(2)
C16 C15 H15 119.8
C14 C15 H15 119.8
C17 C16 C15 120.0(2)
C17 C16 H16 120.0
C15 C16 H16 120.0
C16 C17 C18 120.2(2)
C16 C17 H17 119.9
C18 C17 H17 119.9
C17 C18 C13 120.3(2)
C17 C18 H18 119.8
C13 C18 H18 119.8
C24 C19 C20 119.7(2)
C24 C19 P2 121.49(18)
C20 C19 P2 118.74(17)
C21 C20 C19 119.8(2)
C21 C20 H20 120.1
C19 C20 H20 120.1
C22 C21 C20 120.0(2)
C22 C21 H21 120.0
C20 C21 H21 120.0
C21 C22 C23 120.5(2)
C21 C22 H22 119.7
C23 C22 H22 119.7
C22 C23 C24 120.2(2)
C22 C23 H23 119.9
C24 C23 H23 119.9
C23 C24 C19 119.6(2)
C23 C24 H24 120.2
C19 C24 H24 120.2
C30 C25 C26 119.5(2)
C30 C25 P2 119.26(17)
C26 C25 P2 121.14(17)
C27 C26 C25 120.1(2)
C27 C26 H26 120.0
C25 C26 H26 120.0
C28 C27 C26 119.8(2)
C28 C27 H27 120.1
C26 C27 H27 120.1
C29 C28 C27 120.4(2)
C29 C28 H28 119.8
C27 C28 H28 119.8
C28 C29 C30 120.4(2)
C28 C29 H29 119.8
C30 C29 H29 119.8
C25 C30 C29 119.9(2)
C25 C30 H30 120.1
C29 C30 H30 120.1
C32 C31 C36 119.8(2)
C32 C31 P2 119.29(19)
C36 C31 P2 120.49(18)
C33 C32 C31 119.6(3)
C33 C32 H32 120.2
C31 C32 H32 120.2
C34 C33 C32 120.2(3)
C34 C33 H33 119.9
C32 C33 H33 119.9
C33 C34 C35 120.9(2)
C33 C34 H34 119.6
C35 C34 H34 119.6
C34 C35 C36 119.4(3)
C34 C35 H35 120.3
C36 C35 H35 120.3
C35 C36 C31 120.2(2)
C35 C36 H36 119.9
C31 C36 H36 119.9
C42 C37 C38 121.32(19)
C42 C37 P3 123.13(17)
C38 C37 P3 115.43(16)
C37 C38 C39 119.70(19)
C37 C38 S1 119.35(16)
C39 C38 S1 120.95(17)
C40 C39 C38 117.2(2)
C40 C39 Si1 119.65(17)
C38 C39 Si1 123.13(17)
C41 C40 C39 122.9(2)
C41 C40 H40 118.5
C39 C40 H40 118.5
C42 C41 C40 119.4(2)
C42 C41 H41 120.3
C40 C41 H41 120.3
C41 C42 C37 119.4(2)
C41 C42 H42 120.3
C37 C42 H42 120.3
Si1 C43 H43A 109.5
Si1 C43 H43B 109.5
H43A C43 H43B 109.5
Si1 C43 H43C 109.5
H43A C43 H43C 109.5
H43B C43 H43C 109.5
Si1 C44 H44A 109.5
Si1 C44 H44B 109.5
H44A C44 H44B 109.5
Si1 C44 H44C 109.5
H44A C44 H44C 109.5
H44B C44 H44C 109.5
Si1 C45 H45A 109.5
Si1 C45 H45B 109.5
H45A C45 H45B 109.5
Si1 C45 H45C 109.5
H45A C45 H45C 109.5
H45B C45 H45C 109.5
C51 C46 C47 121.2(2)
C51 C46 P3 124.22(17)
C47 C46 P3 114.52(16)
C46 C47 C48 120.0(2)
C46 C47 S2 118.54(16)
C48 C47 S2 121.45(17)
C49 C48 C47 116.6(2)
C49 C48 Si2 119.34(17)
C47 C48 Si2 124.04(17)
C50 C49 C48 123.4(2)
C50 C49 H49 118.3
C48 C49 H49 118.3
C51 C50 C49 119.1(2)
C51 C50 H50 120.5
C49 C50 H50 120.5
C50 C51 C46 119.7(2)
C50 C51 H51 120.1
C46 C51 H51 120.1
Si2 C52 H52A 109.5
Si2 C52 H52B 109.5
H52A C52 H52B 109.5
Si2 C52 H52C 109.5
H52A C52 H52C 109.5
H52B C52 H52C 109.5
Si2 C53 H53A 109.5
Si2 C53 H53B 109.5
H53A C53 H53B 109.5
Si2 C53 H53C 109.5
H53A C53 H53C 109.5
H53B C53 H53C 109.5
Si2 C54 H54A 109.5
Si2 C54 H54B 109.5
H54A C54 H54B 109.5
Si2 C54 H54C 109.5
H54A C54 H54C 109.5
H54B C54 H54C 109.5
C60 C55 C56 121.9(2)
C60 C55 P3 125.36(16)
C56 C55 P3 112.68(16)
C55 C56 C57 119.3(2)
C55 C56 S3 117.69(16)
C57 C56 S3 122.93(16)
C58 C57 C56 116.7(2)
C58 C57 Si3 117.79(17)
C56 C57 Si3 125.34(17)
C59 C58 C57 123.6(2)
C59 C58 H58 118.2
C57 C58 H58 118.2
C60 C59 C58 119.6(2)
C60 C59 H59 120.2
C58 C59 H59 120.2
C59 C60 C55 118.9(2)
C59 C60 H60 120.6
C55 C60 H60 120.6
Si3 C61 H61A 109.5
Si3 C61 H61B 109.5
H61A C61 H61B 109.5
Si3 C61 H61C 109.5
H61A C61 H61C 109.5
H61B C61 H61C 109.5
Si3 C62 H62A 109.5
Si3 C62 H62B 109.5
H62A C62 H62B 109.5
Si3 C62 H62C 109.5
H62A C62 H62C 109.5
H62B C62 H62C 109.5
Si3 C63 H63A 109.5
Si3 C63 H63B 109.5
H63A C63 H63B 109.5
Si3 C63 H63C 109.5
H63A C63 H63C 109.5
H63B C63 H63C 109.5
N2 C64 O1 177.2(3)
O2 C65 C66 107.4(3)
O2 C65 H65A 110.2
C66 C65 H65A 110.2
O2 C65 H65B 110.2
C66 C65 H65B 110.2
H65A C65 H65B 108.5
C65 C66 C67 104.8(3)
C65 C66 H66A 110.8
C67 C66 H66A 110.8
C65 C66 H66B 110.8
C67 C66 H66B 110.8
H66A C66 H66B 108.9
C68 C67 C66 103.5(3)
C68 C67 H67A 111.1
C66 C67 H67A 111.1
C68 C67 H67B 111.1
C66 C67 H67B 111.1
H67A C67 H67B 109.0
O2 C68 C67 106.8(3)
O2 C68 H68A 110.4
C67 C68 H68A 110.4
O2 C68 H68B 110.4
C67 C68 H68B 110.4
H68A C68 H68B 108.6
loop_
_geom_bond_atom_site_label_1
_geom_bond_atom_site_label_2
_geom_bond_distance
Ni1 N2 1.9330(19)
Ni1 P3 2.1197(6)
Ni1 S2 2.2263(6)
Ni1 S1 2.2857(6)
Ni1 S3 2.2909(6)
P1 N1 1.5797(18)
P1 C1 1.797(2)
P1 C7 1.798(2)
P1 C13 1.803(2)
P2 N1 1.5849(18)
P2 C19 1.794(2)
P2 C25 1.796(2)
P2 C31 1.801(2)
P3 C37 1.797(2)
P3 C55 1.800(2)
P3 C46 1.802(2)
S1 C38 1.753(2)
S2 C47 1.767(2)
S3 C56 1.766(2)
Si1 C44 1.863(3)
Si1 C45 1.863(3)
Si1 C43 1.870(3)
Si1 C39 1.897(2)
Si2 C53 1.863(3)
Si2 C52 1.865(3)
Si2 C54 1.871(3)
Si2 C48 1.883(2)
Si3 C63 1.864(3)
Si3 C62 1.868(3)
Si3 C61 1.873(3)
Si3 C57 1.888(2)
N2 C64 1.181(3)
O1 C64 1.200(3)
O2 C65 1.399(4)
O2 C68 1.403(4)
C1 C6 1.396(3)
C1 C2 1.405(3)
C2 C3 1.386(4)
C2 H2 0.9500
C3 C4 1.385(4)
C3 H3 0.9500
C4 C5 1.384(4)
C4 H4 0.9500
C5 C6 1.392(3)
C5 H5 0.9500
C6 H6 0.9500
C7 C8 1.395(3)
C7 C12 1.399(3)
C8 C9 1.390(3)
C8 H8 0.9500
C9 C10 1.381(4)
C9 H9 0.9500
C10 C11 1.381(4)
C10 H10 0.9500
C11 C12 1.386(3)
C11 H11 0.9500
C12 H12 0.9500
C13 C14 1.397(3)
C13 C18 1.397(3)
C14 C15 1.387(3)
C14 H14 0.9500
C15 C16 1.383(3)
C15 H15 0.9500
C16 C17 1.377(3)
C16 H16 0.9500
C17 C18 1.384(3)
C17 H17 0.9500
C18 H18 0.9500
C19 C24 1.396(3)
C19 C20 1.398(3)
C20 C21 1.391(3)
C20 H20 0.9500
C21 C22 1.376(4)
C21 H21 0.9500
C22 C23 1.384(4)
C22 H22 0.9500
C23 C24 1.388(3)
C23 H23 0.9500
C24 H24 0.9500
C25 C30 1.383(3)
C25 C26 1.395(3)
C26 C27 1.386(3)
C26 H26 0.9500
C27 C28 1.383(4)
C27 H27 0.9500
C28 C29 1.369(4)
C28 H28 0.9500
C29 C30 1.390(3)
C29 H29 0.9500
C30 H30 0.9500
C31 C32 1.391(3)
C31 C36 1.392(3)
C32 C33 1.386(4)
C32 H32 0.9500
C33 C34 1.375(5)
C33 H33 0.9500
C34 C35 1.381(4)
C34 H34 0.9500
C35 C36 1.389(3)
C35 H35 0.9500
C36 H36 0.9500
C37 C42 1.397(3)
C37 C38 1.406(3)
C38 C39 1.416(3)
C39 C40 1.400(3)
C40 C41 1.395(3)
C40 H40 0.9500
C41 C42 1.384(3)
C41 H41 0.9500
C42 H42 0.9500
C43 H43A 0.9800
C43 H43B 0.9800
C43 H43C 0.9800
C44 H44A 0.9800
C44 H44B 0.9800
C44 H44C 0.9800
C45 H45A 0.9800
C45 H45B 0.9800
C45 H45C 0.9800
C46 C51 1.389(3)
C46 C47 1.403(3)
C47 C48 1.421(3)
C48 C49 1.401(3)
C49 C50 1.390(3)
C49 H49 0.9500
C50 C51 1.386(3)
C50 H50 0.9500
C51 H51 0.9500
C52 H52A 0.9800
C52 H52B 0.9800
C52 H52C 0.9800
C53 H53A 0.9800
C53 H53B 0.9800
C53 H53C 0.9800
C54 H54A 0.9800
C54 H54B 0.9800
C54 H54C 0.9800
C55 C60 1.396(3)
C55 C56 1.410(3)
C56 C57 1.417(3)
C57 C58 1.404(3)
C58 C59 1.385(3)
C58 H58 0.9500
C59 C60 1.382(3)
C59 H59 0.9500
C60 H60 0.9500
C61 H61A 0.9800
C61 H61B 0.9800
C61 H61C 0.9800
C62 H62A 0.9800
C62 H62B 0.9800
C62 H62C 0.9800
C63 H63A 0.9800
C63 H63B 0.9800
C63 H63C 0.9800
C65 C66 1.499(5)
C65 H65A 0.9900
C65 H65B 0.9900
C66 C67 1.501(5)
C66 H66A 0.9900
C66 H66B 0.9900
C67 C68 1.486(5)
C67 H67A 0.9900
C67 H67B 0.9900
C68 H68A 0.9900
C68 H68B 0.9900
