#------------------------------------------------------------------------------
#$Date: 2016-03-13 15:27:14 +0200 (Sun, 13 Mar 2016) $
#$Revision: 178181 $
#$URL: svn://www.crystallography.net/cod/cif/1/54/28/1542813.cif $
#------------------------------------------------------------------------------
#
# This file is available in the Crystallography Open Database (COD),
# http://www.crystallography.net/
#
# All data on this site have been placed in the public domain by the
# contributors.
#
data_1542813
loop_
_publ_author_name
'Bolla, Geetha'
'Mittapalli, Sudhir'
'Nangia, Ashwini'
_publ_section_title
;
 Modularity and three-dimensional isostructurality of novel synthons in
 sulfonamide--lactam cocrystals
;
_journal_coeditor_code           ZX5004
_journal_issue                   4
_journal_name_full               IUCrJ
_journal_page_first              389
_journal_page_last               401
_journal_paper_doi               10.1107/S2052252515004960
_journal_volume                  2
_journal_year                    2015
_chemical_formula_moiety         C6H7NO2S,C7H13NO
_chemical_formula_sum            'C13 H20 N2 O3 S'
_chemical_formula_weight         284.37
_chemical_name_systematic
; 
 ? 
;
_space_group_IT_number           14
_symmetry_cell_setting           monoclinic
_symmetry_space_group_name_Hall  '-P 2yn'
_symmetry_space_group_name_H-M   'P 1 21/n 1'
_atom_sites_solution_hydrogens   geom
_atom_sites_solution_primary     direct
_atom_sites_solution_secondary   difmap
_audit_creation_method           SHELXL-97
_cell_angle_alpha                90.00
_cell_angle_beta                 106.760(2)
_cell_angle_gamma                90.00
_cell_formula_units_Z            4
_cell_length_a                   7.3020(9)
_cell_length_b                   17.189(2)
_cell_length_c                   12.2835(16)
_cell_measurement_reflns_used    3397
_cell_measurement_temperature    298(2)
_cell_measurement_theta_max      23.26
_cell_measurement_theta_min      2.93
_cell_volume                     1476.3(3)
_computing_structure_refinement  'SHELXL-97 (Sheldrick, 1997)'
_computing_structure_solution    'SHELXS-97 (Sheldrick, 1990)'
_diffrn_ambient_temperature      298(2)
_diffrn_measured_fraction_theta_full 1.000
_diffrn_measured_fraction_theta_max 1.000
_diffrn_measurement_device_type  'CCD area detector'
_diffrn_measurement_method       'phi and omega scans'
_diffrn_radiation_monochromator  graphite
_diffrn_radiation_source         'fine-focus sealed tube'
_diffrn_radiation_type           MoK\a
_diffrn_radiation_wavelength     0.71073
_diffrn_reflns_av_R_equivalents  0.0373
_diffrn_reflns_av_sigmaI/netI    0.0252
_diffrn_reflns_limit_h_max       8
_diffrn_reflns_limit_h_min       -8
_diffrn_reflns_limit_k_max       20
_diffrn_reflns_limit_k_min       -20
_diffrn_reflns_limit_l_max       14
_diffrn_reflns_limit_l_min       -14
_diffrn_reflns_number            13710
_diffrn_reflns_theta_full        24.71
_diffrn_reflns_theta_max         24.71
_diffrn_reflns_theta_min         2.10
_exptl_absorpt_coefficient_mu    0.225
_exptl_absorpt_correction_type   none
_exptl_crystal_colour            COLORLES
_exptl_crystal_density_diffrn    1.279
_exptl_crystal_density_method    'not measured'
_exptl_crystal_description       PLATE
_exptl_crystal_F_000             608
_exptl_crystal_size_max          0.22
_exptl_crystal_size_mid          0.20
_exptl_crystal_size_min          0.20
_refine_diff_density_max         0.258
_refine_diff_density_min         -0.270
_refine_diff_density_rms         0.049
_refine_ls_extinction_method     none
_refine_ls_goodness_of_fit_ref   1.092
_refine_ls_hydrogen_treatment    mixed
_refine_ls_matrix_type           full
_refine_ls_number_parameters     184
_refine_ls_number_reflns         2520
_refine_ls_number_restraints     0
_refine_ls_restrained_S_all      1.092
_refine_ls_R_factor_all          0.0699
_refine_ls_R_factor_gt           0.0597
_refine_ls_shift/su_max          0.000
_refine_ls_shift/su_mean         0.000
_refine_ls_structure_factor_coef Fsqd
_refine_ls_weighting_details
'calc w=1/[\s^2^(Fo^2^)+(0.0573P)^2^+0.8349P] where P=(Fo^2^+2Fc^2^)/3'
_refine_ls_weighting_scheme      calc
_refine_ls_wR_factor_gt          0.1353
_refine_ls_wR_factor_ref         0.1419
_reflns_number_gt                2154
_reflns_number_total             2520
_reflns_threshold_expression     >2sigma(I)
_cod_data_source_file            zx5004.cif
_cod_data_source_block           BSAAZL
_cod_depositor_comments
;
The following automatic conversions were performed:

'_symmetry_cell_setting' value 'Monoclinic' changed to 'monoclinic'
according to
/usr/data/users/saulius/automatic-downloads/current/IUCr/lib/dictionaries/cif_core.dic
dictionary named 'cif_core.dic' version 2.4.2 from 2011-04-26.

Automatic conversion script
Id: cif_fix_values 4287 2015-11-16 14:04:37Z antanas 
;
_cod_original_cell_volume        1476.2(3)
_cod_original_sg_symbol_H-M      'P2(1)/n  '
_cod_database_code               1542813
_publcif_datablock.id            {6ae9f214-f6c1-4470-8cfd-e02939af13f3}
loop_
_symmetry_equiv_pos_as_xyz
'x, y, z'
'-x+1/2, y+1/2, -z+1/2'
'-x, -y, -z'
'x-1/2, -y-1/2, z-1/2'
loop_
_atom_site_label
_atom_site_type_symbol
_atom_site_fract_x
_atom_site_fract_y
_atom_site_fract_z
_atom_site_U_iso_or_equiv
_atom_site_adp_type
_atom_site_occupancy
_atom_site_symmetry_multiplicity
_atom_site_calc_flag
_atom_site_refinement_flags
S1 S 0.38938(11) 0.14789(5) 0.32694(6) 0.0614(3) Uani 1 1 d .
O3 O 0.6840(3) 0.53498(12) 0.94445(16) 0.0631(5) Uani 1 1 d .
N2 N 0.3761(3) 0.56077(15) 0.8646(2) 0.0566(6) Uani 1 1 d .
C7 C 0.5577(4) 0.57061(15) 0.8708(2) 0.0519(7) Uani 1 1 d .
N1 N 0.4595(4) 0.06644(16) 0.3858(2) 0.0624(7) Uani 1 1 d .
C1 C 0.2838(4) 0.20092(15) 0.4165(2) 0.0509(7) Uani 1 1 d .
C6 C 0.3969(5) 0.24554(18) 0.5024(2) 0.0649(8) Uani 1 1 d .
H6 H 0.5285 0.2473 0.5140 0.078 Uiso 1 1 calc R
O1 O 0.5566(4) 0.18886(15) 0.3219(2) 0.0918(8) Uani 1 1 d .
C2 C 0.0897(4) 0.19751(18) 0.4000(3) 0.0649(8) Uani 1 1 d .
H2 H 0.0131 0.1669 0.3422 0.078 Uiso 1 1 calc R
O2 O 0.2438(4) 0.13196(16) 0.22504(17) 0.0936(8) Uani 1 1 d .
C13 C 0.2123(4) 0.5940(2) 0.7798(3) 0.0677(8) Uani 1 1 d .
H13A H 0.2483 0.6442 0.7562 0.081 Uiso 1 1 calc R
H13B H 0.1099 0.6026 0.8142 0.081 Uiso 1 1 calc R
C12 C 0.1394(4) 0.5429(2) 0.6764(3) 0.0764(10) Uani 1 1 d .
H12A H 0.0416 0.5712 0.6200 0.092 Uiso 1 1 calc R
H12B H 0.0791 0.4974 0.6979 0.092 Uiso 1 1 calc R
C8 C 0.6142(4) 0.62429(18) 0.7904(3) 0.0678(8) Uani 1 1 d .
H8A H 0.7423 0.6434 0.8265 0.081 Uiso 1 1 calc R
H8B H 0.5286 0.6687 0.7760 0.081 Uiso 1 1 calc R
C10 C 0.4123(5) 0.5781(2) 0.5924(3) 0.0832(10) Uani 1 1 d .
H10A H 0.3448 0.6273 0.5867 0.100 Uiso 1 1 calc R
H10B H 0.4280 0.5668 0.5182 0.100 Uiso 1 1 calc R
C9 C 0.6104(5) 0.5875(2) 0.6774(3) 0.0773(10) Uani 1 1 d .
H9A H 0.6696 0.5366 0.6922 0.093 Uiso 1 1 calc R
H9B H 0.6881 0.6190 0.6424 0.093 Uiso 1 1 calc R
C11 C 0.2909(6) 0.5156(2) 0.6214(3) 0.0867(11) Uani 1 1 d .
H11A H 0.3745 0.4791 0.6726 0.104 Uiso 1 1 calc R
H11B H 0.2272 0.4876 0.5523 0.104 Uiso 1 1 calc R
C3 C 0.0098(5) 0.2398(2) 0.4696(3) 0.0812(10) Uani 1 1 d .
H3 H -0.1215 0.2380 0.4589 0.097 Uiso 1 1 calc R
C4 C 0.1229(7) 0.2846(2) 0.5545(3) 0.0874(11) Uani 1 1 d .
H4 H 0.0684 0.3133 0.6013 0.105 Uiso 1 1 calc R
C5 C 0.3157(7) 0.2872(2) 0.5707(3) 0.0856(11) Uani 1 1 d .
H5 H 0.3921 0.3177 0.6288 0.103 Uiso 1 1 calc R
H1A H 0.556(4) 0.0704(17) 0.437(3) 0.055(9) Uiso 1 1 d .
H1B H 0.367(4) 0.0358(18) 0.394(2) 0.063(9) Uiso 1 1 d .
H2A H 0.350(4) 0.5300(17) 0.910(3) 0.056(9) Uiso 1 1 d .
loop_
_atom_site_aniso_label
_atom_site_aniso_U_11
_atom_site_aniso_U_22
_atom_site_aniso_U_33
_atom_site_aniso_U_23
_atom_site_aniso_U_13
_atom_site_aniso_U_12
S1 0.0675(5) 0.0681(5) 0.0491(4) 0.0095(3) 0.0176(3) 0.0087(4)
O3 0.0502(11) 0.0787(14) 0.0541(11) 0.0086(10) 0.0050(9) 0.0043(10)
N2 0.0512(14) 0.0715(16) 0.0477(13) 0.0093(12) 0.0155(11) 0.0044(12)
C7 0.0542(16) 0.0519(15) 0.0465(15) -0.0062(12) 0.0093(13) -0.0030(13)
N1 0.0509(15) 0.0663(17) 0.0639(17) 0.0031(13) 0.0072(14) 0.0013(13)
C1 0.0572(16) 0.0496(15) 0.0417(14) 0.0096(12) 0.0077(12) 0.0015(12)
C6 0.0689(19) 0.0658(19) 0.0542(17) 0.0034(15) 0.0086(15) -0.0071(15)
O1 0.0985(18) 0.0885(17) 0.1086(19) 0.0215(14) 0.0617(15) -0.0026(14)
C2 0.0614(19) 0.071(2) 0.0570(17) 0.0009(15) 0.0087(14) -0.0012(15)
O2 0.1033(18) 0.118(2) 0.0458(12) -0.0055(12) -0.0006(12) 0.0350(15)
C13 0.0514(17) 0.086(2) 0.0670(19) 0.0105(17) 0.0195(14) 0.0184(15)
C12 0.0546(18) 0.103(3) 0.0623(19) 0.0138(18) 0.0027(15) -0.0069(17)
C8 0.0568(18) 0.0632(19) 0.080(2) 0.0119(16) 0.0139(16) -0.0092(14)
C10 0.102(3) 0.093(3) 0.0595(19) 0.0084(18) 0.0313(19) 0.012(2)
C9 0.070(2) 0.095(2) 0.076(2) 0.0293(19) 0.0355(18) 0.0144(18)
C11 0.103(3) 0.089(3) 0.062(2) -0.0165(18) 0.014(2) -0.014(2)
C3 0.074(2) 0.091(3) 0.087(3) 0.014(2) 0.037(2) 0.0150(19)
C4 0.134(4) 0.073(2) 0.069(2) 0.0041(19) 0.051(2) 0.017(2)
C5 0.122(3) 0.074(2) 0.0550(19) -0.0068(17) 0.015(2) -0.013(2)
loop_
_atom_type_symbol
_atom_type_description
_atom_type_scat_dispersion_real
_atom_type_scat_dispersion_imag
_atom_type_scat_source
C C 0.0033 0.0016 'International Tables Vol C Tables 4.2.6.8 and 6.1.1.4'
H H 0.0000 0.0000 'International Tables Vol C Tables 4.2.6.8 and 6.1.1.4'
N N 0.0061 0.0033 'International Tables Vol C Tables 4.2.6.8 and 6.1.1.4'
O O 0.0106 0.0060 'International Tables Vol C Tables 4.2.6.8 and 6.1.1.4'
S S 0.1246 0.1234 'International Tables Vol C Tables 4.2.6.8 and 6.1.1.4'
loop_
_geom_angle_atom_site_label_1
_geom_angle_atom_site_label_2
_geom_angle_atom_site_label_3
_geom_angle
O2 S1 O1 119.42(17)
O2 S1 N1 107.04(17)
O1 S1 N1 106.66(16)
O2 S1 C1 107.39(14)
O1 S1 C1 107.74(14)
N1 S1 C1 108.17(13)
C7 N2 C13 126.6(3)
C7 N2 H2A 118(2)
C13 N2 H2A 116(2)
O3 C7 N2 120.0(3)
O3 C7 C8 119.6(2)
N2 C7 C8 120.4(3)
S1 N1 H1A 112(2)
S1 N1 H1B 114.8(19)
H1A N1 H1B 119(3)
C6 C1 C2 120.3(3)
C6 C1 S1 119.5(2)
C2 C1 S1 120.2(2)
C5 C6 C1 119.7(3)
C5 C6 H6 120.2
C1 C6 H6 120.2
C1 C2 C3 119.3(3)
C1 C2 H2 120.3
C3 C2 H2 120.3
N2 C13 C12 113.0(3)
N2 C13 H13A 109.0
C12 C13 H13A 109.0
N2 C13 H13B 109.0
C12 C13 H13B 109.0
H13A C13 H13B 107.8
C13 C12 C11 115.2(3)
C13 C12 H12A 108.5
C11 C12 H12A 108.5
C13 C12 H12B 108.5
C11 C12 H12B 108.5
H12A C12 H12B 107.5
C7 C8 C9 114.3(3)
C7 C8 H8A 108.7
C9 C8 H8A 108.7
C7 C8 H8B 108.7
C9 C8 H8B 108.7
H8A C8 H8B 107.6
C11 C10 C9 114.9(3)
C11 C10 H10A 108.5
C9 C10 H10A 108.5
C11 C10 H10B 108.5
C9 C10 H10B 108.5
H10A C10 H10B 107.5
C8 C9 C10 115.6(3)
C8 C9 H9A 108.4
C10 C9 H9A 108.4
C8 C9 H9B 108.4
C10 C9 H9B 108.4
H9A C9 H9B 107.4
C10 C11 C12 116.0(3)
C10 C11 H11A 108.3
C12 C11 H11A 108.3
C10 C11 H11B 108.3
C12 C11 H11B 108.3
H11A C11 H11B 107.4
C4 C3 C2 120.1(3)
C4 C3 H3 119.9
C2 C3 H3 119.9
C5 C4 C3 120.1(3)
C5 C4 H4 119.9
C3 C4 H4 119.9
C6 C5 C4 120.4(3)
C6 C5 H5 119.8
C4 C5 H5 119.8
loop_
_geom_bond_atom_site_label_1
_geom_bond_atom_site_label_2
_geom_bond_distance
S1 O2 1.416(2)
S1 O1 1.426(2)
S1 N1 1.591(3)
S1 C1 1.768(3)
O3 C7 1.250(3)
N2 C7 1.317(3)
N2 C13 1.457(3)
N2 H2A 0.83(3)
C7 C8 1.495(4)
N1 H1A 0.80(3)
N1 H1B 0.88(3)
C1 C6 1.372(4)
C1 C2 1.374(4)
C6 C5 1.363(5)
C6 H6 0.9300
C2 C3 1.375(4)
C2 H2 0.9300
C13 C12 1.511(5)
C13 H13A 0.9700
C13 H13B 0.9700
C12 C11 1.526(5)
C12 H12A 0.9700
C12 H12B 0.9700
C8 C9 1.517(5)
C8 H8A 0.9700
C8 H8B 0.9700
C10 C11 1.500(5)
C10 C9 1.529(5)
C10 H10A 0.9700
C10 H10B 0.9700
C9 H9A 0.9700
C9 H9B 0.9700
C11 H11A 0.9700
C11 H11B 0.9700
C3 C4 1.365(5)
C3 H3 0.9300
C4 C5 1.364(5)
C4 H4 0.9300
C5 H5 0.9300
