#------------------------------------------------------------------------------
#$Date: 2018-09-18 18:01:10 +0300 (Tue, 18 Sep 2018) $
#$Revision: 211042 $
#$URL: file:///home/coder/svn-repositories/cod/cif/1/54/33/1543383.cif $
#------------------------------------------------------------------------------
#
# This file is available in the Crystallography Open Database (COD),
# http://www.crystallography.net/
#
# All data on this site have been placed in the public domain by the
# contributors.
#
data_1543383
loop_
_publ_author_name
'Spasyuk, Denis M.'
'Carpenter, Stephanie H.'
'Kefalidis, Christos E.'
'Piers, Warren E.'
'Neidig, Michael L.'
'Maron, Laurent'
_publ_section_title
;
 Facile hydrogen atom transfer to iron(III) imido radical complexes
 supported by a dianionic pentadentate ligand
;
_journal_coden_ASTM              CSHCCN
_journal_issue                   9
_journal_name_full               'Chemical Science'
_journal_page_first              5939
_journal_page_last               5944
_journal_paper_doi               10.1039/c6sc01433j
_journal_volume                  7
_journal_year                    2016
_chemical_formula_moiety         'C68 H63 B4 Fe2 N19 O2 S, C6 H6'
_chemical_formula_sum            'C74 H69 B4 Fe2 N19 O2 S'
_chemical_formula_weight         1443.48
_space_group_crystal_system      triclinic
_space_group_IT_number           2
_space_group_name_Hall           '-P 1'
_space_group_name_H-M_alt        'P -1'
_symmetry_space_group_name_Hall  '-P 1'
_symmetry_space_group_name_H-M   'P -1'
_atom_sites_solution_hydrogens   geom
_audit_creation_method           SHELXL-2013
_audit_update_record
;
2015-11-27 deposited with the CCDC.
2016-05-31 downloaded from the CCDC.
;
_cell_angle_alpha                68.407(3)
_cell_angle_beta                 83.226(3)
_cell_angle_gamma                68.207(3)
_cell_formula_units_Z            2
_cell_length_a                   13.5661(12)
_cell_length_b                   16.6230(14)
_cell_length_c                   19.6115(17)
_cell_measurement_reflns_used    9905
_cell_measurement_temperature    173(2)
_cell_measurement_theta_max      71.50
_cell_measurement_theta_min      2.42
_cell_volume                     3817.4(6)
_computing_cell_refinement       'Bruker SAINT'
_computing_data_collection       'Bruker APEX2'
_computing_data_reduction        'Bruker SAINT'
_computing_molecular_graphics    'Bruker SHELXTL'
_computing_publication_material  'LinXTL v.  5.3.8'
_computing_structure_refinement  'SHELXL-2013 (Sheldrick 2013)'
_computing_structure_solution    'SHELXS-97 (Sheldrick 2008)'
_diffrn_ambient_temperature      173(2)
_diffrn_measured_fraction_theta_full 0.965
_diffrn_measured_fraction_theta_max 0.940
_diffrn_measurement_device_type  'Bruker APEX-II CCD'
_diffrn_measurement_method       '\f and \w scans'
_diffrn_radiation_type           CuK\a
_diffrn_radiation_wavelength     1.54178
_diffrn_reflns_av_R_equivalents  0.0939
_diffrn_reflns_av_unetI/netI     0.0928
_diffrn_reflns_Laue_measured_fraction_full 0.965
_diffrn_reflns_Laue_measured_fraction_max 0.940
_diffrn_reflns_limit_h_max       16
_diffrn_reflns_limit_h_min       -16
_diffrn_reflns_limit_k_max       20
_diffrn_reflns_limit_k_min       -20
_diffrn_reflns_limit_l_max       24
_diffrn_reflns_limit_l_min       -23
_diffrn_reflns_number            54443
_diffrn_reflns_point_group_measured_fraction_full 0.965
_diffrn_reflns_point_group_measured_fraction_max 0.940
_diffrn_reflns_theta_full        67.679
_diffrn_reflns_theta_max         72.913
_diffrn_reflns_theta_min         2.423
_exptl_absorpt_coefficient_mu    3.758
_exptl_absorpt_correction_T_max  0.7536
_exptl_absorpt_correction_T_min  0.4073
_exptl_absorpt_correction_type   multi-scan
_exptl_absorpt_process_details   'Sadabs (Sheldrick, 1996)'
_exptl_crystal_colour            Brown
_exptl_crystal_density_diffrn    1.256
_exptl_crystal_density_method    'not measured'
_exptl_crystal_description       plate
_exptl_crystal_F_000             1500
_exptl_crystal_size_max          0.30
_exptl_crystal_size_mid          0.20
_exptl_crystal_size_min          0.10
_platon_squeeze_details
;
;
_refine_diff_density_max         1.564
_refine_diff_density_min         -0.551
_refine_diff_density_rms         0.090
_refine_ls_extinction_method     none
_refine_ls_goodness_of_fit_ref   0.963
_refine_ls_hydrogen_treatment    constr
_refine_ls_matrix_type           full
_refine_ls_number_parameters     1002
_refine_ls_number_reflns         14328
_refine_ls_number_restraints     1386
_refine_ls_restrained_S_all      0.931
_refine_ls_R_factor_all          0.1121
_refine_ls_R_factor_gt           0.0769
_refine_ls_shift/su_max          0.000
_refine_ls_shift/su_mean         0.000
_refine_ls_structure_factor_coef Fsqd
_refine_ls_weighting_details
'w=1/[\s^2^(Fo^2^)+(0.1228P)^2^] where P=(Fo^2^+2Fc^2^)/3'
_refine_ls_weighting_scheme      calc
_refine_ls_wR_factor_gt          0.1918
_refine_ls_wR_factor_ref         0.2093
_reflns_Friedel_coverage         0.000
_reflns_number_gt                8717
_reflns_number_total             14328
_reflns_threshold_expression     'I > 2\s(I)'
_cod_data_source_file            c6sc01433j2.cif
_cod_data_source_block           4
_cod_depositor_comments
'Adding full bibliography for 1543379--1543384.cif.'
_cod_database_code               1543383
_shelx_space_group_comment
;
The symmetry employed for this shelxl refinement is uniquely defined
by the following loop, which should always be used as a source of
symmetry information in preference to the above space-group names.
They are only intended as comments.
;
_shelx_estimated_absorpt_t_min   0.399
_shelx_estimated_absorpt_t_max   0.705
_shelxl_version_number           2013-4
_shelx_res_file
;
TITL ds119_0m_a.res in P-1
CELL  1.54178  13.5661  16.6230  19.6115   68.407   83.226   68.207
ZERR    2.000   0.0012   0.0014   0.0017    0.003    0.003    0.003
LATT 1
SFAC C  H  N  O  B  S  Fe
UNIT 148 138 38 4 8 2 4
SADI 0.02 C63 C64A C63 C65A C63 C66A C63 C64B C63 C65B C63 C66B
REM SADI 0.02 C64A C64B C64B C65A C65A C65B C65B C66A C66A C66B C66B C64A
SIMU 0.005 C64A C64B C65A C65B C66A C66B C66B C64A
DELU 0.005 C64A C64B C65A C65B C66A C66B C66B C64A
ISOR 0.005 C64A C64B C65A C65B C66A C66B C66B C64A
OMIT  13 15 14
OMIT  3 1 5
OMIT  11 15 14
OMIT  8 13 13
OMIT  10 14 17
OMIT  -3 3 8
OMIT  7 12 18
OMIT  4 -2 3
OMIT  1 13 11
OMIT  14 11 8
OMIT  12 16 15
OMIT  -2 5 9
OMIT  9 13 16
OMIT  8 13 18
OMIT  2 1 1
OMIT  -3 5 9
OMIT  11 17 16
OMIT  0 12 13
OMIT  7 13 18
OMIT  9 15 14
OMIT  12 14 13
OMIT  0 -2 3
OMIT  -1 2 2
OMIT  0 11 12
OMIT  7 15 16
OMIT  1 5 0
OMIT  -1 -1 1
OMIT  -1 -2 1
OMIT  0 5 1
OMIT  1 13 13
OMIT  -1 11 10
OMIT  10 17 12
OMIT  2 4 2
OMIT  0 12 12
OMIT  11 16 13
OMIT  8 15 17
OMIT  1 12 13
OMIT  1 3 1
OMIT  2 4 7
OMIT  -4 -2 2
OMIT  10 15 18
OMIT  1 1 4
OMIT  10 16 17
OMIT  0 11 11
OMIT  11 16 15
OMIT  12 16 14
OMIT  5 4 4
OMIT  1 1 1
OMIT  0 -1 1
L.S. 20
ACTA
BOND $H
FMAP 2
PLAN 0
RIGU
LIST 6
HTAB C48 O1_$1
EQIV $1 -x+1, -y+1, -z+1
HTAB C8 O1
SIZE 0.100 0.200 0.300
SIMU 0.005 C75A C75B C76A C76B C77A C77B C78A C78B C79A C79B C80A C80B
SADI C75A C76A C76A C77A C77A C78A C78A C79A C79A C80A C80A C75A
SADI C75B C76B C76B C77B C77B C78B C78B C79B C79B C80B C80B C75B
DFIX 1.38 C75A C76A C76A C77A C77A C78A C78A C79A C79A C80A C80A C75A
DFIX 1.38 C75B C76B C76B C77B C77B C78B C78B C79B C79B C80B C80B C75B
SADI C75B C77B C76B C78B C77B C79B C78B C80B
SADI 0.01 C75A C77A C76A C78A C77A C79A C78A C80A
FLAT 0.01 C75A C76A C77A C78A C79A C80A
FLAT 0.01 C75B C76B C77B C78B C79B C80B
WPDB -1
CONF
HTAB
TEMP -99.960
WGHT    0.122800
FVAR       0.88291   0.78908   0.41852
B1    5    0.421332    1.014662    0.177262    11.00000    0.03611    0.03730 =
         0.03911   -0.00656   -0.00037   -0.01384
B2    5    0.833000    0.901985    0.189608    11.00000    0.03523    0.04406 =
         0.05269   -0.01007    0.00471   -0.01836
B3    5    0.402841    0.600210    0.103860    11.00000    0.02575    0.03823 =
         0.03576   -0.01185    0.00391   -0.01406
B4    5    0.562095    0.285482    0.315775    11.00000    0.04155    0.02943 =
         0.03873   -0.00864    0.00273   -0.01179
C1    1    0.529707    1.038437    0.168151    11.00000    0.03549    0.03587 =
         0.03222   -0.00791    0.00039   -0.01405
C2    1    0.525737    1.129024    0.143017    11.00000    0.03924    0.03886 =
         0.04702   -0.00686   -0.00467   -0.01718
AFIX  43
H2    2    0.458791    1.178059    0.133735    11.00000   -1.20000
AFIX   0
C3    1    0.617692    1.149254    0.131211    11.00000    0.04824    0.03677 =
         0.05034   -0.00570   -0.00528   -0.02372
AFIX  43
H3    2    0.614375    1.211629    0.114077    11.00000   -1.20000
AFIX   0
C4    1    0.714282    1.077515    0.144684    11.00000    0.03765    0.04161 =
         0.04836   -0.00361   -0.00245   -0.02085
AFIX  43
H4    2    0.778003    1.090656    0.136586    11.00000   -1.20000
AFIX   0
C5    1    0.719497    0.986753    0.169820    11.00000    0.03483    0.03888 =
         0.03998   -0.00896    0.00239   -0.01848
C6    1    0.341188    0.928722    0.301754    11.00000    0.03201    0.04606 =
         0.04825   -0.01624    0.00829   -0.01539
AFIX  43
H6    2    0.270112    0.971259    0.295418    11.00000   -1.20000
AFIX   0
C7    1    0.378492    0.847967    0.359205    11.00000    0.04422    0.04214 =
         0.04345   -0.00880    0.01144   -0.02094
AFIX  43
H7    2    0.340088    0.824172    0.400544    11.00000   -1.20000
AFIX   0
C8    1    0.483801    0.807784    0.344923    11.00000    0.04616    0.03684 =
         0.04158   -0.00717    0.00637   -0.01724
AFIX  43
H8    2    0.530803    0.749747    0.375336    11.00000   -1.20000
AFIX   0
C9    1    0.368227    0.979953    0.065560    11.00000    0.04710    0.06129 =
         0.05226   -0.01679   -0.00365   -0.02747
AFIX  43
H9    2    0.303370    1.030509    0.049188    11.00000   -1.20000
AFIX   0
C10   1    0.412373    0.913175    0.035792    11.00000    0.05678    0.07316 =
         0.05112   -0.02402    0.00276   -0.03712
AFIX  43
H10   2    0.386643    0.907983   -0.004829    11.00000   -1.20000
AFIX   0
C11   1    0.504708    0.853365    0.078479    11.00000    0.05279    0.06694 =
         0.05187   -0.02628    0.00882   -0.02847
AFIX  43
H11   2    0.553156    0.798614    0.071685    11.00000   -1.20000
AFIX   0
C12   1    0.318602    1.105731    0.171408    11.00000    0.03324    0.03844 =
         0.04945   -0.00652    0.00399   -0.01801
C13   1    0.295719    1.134759    0.232242    11.00000    0.05689    0.03860 =
         0.05779   -0.01179   -0.00381   -0.00809
AFIX  43
H13   2    0.341397    1.099422    0.274279    11.00000   -1.20000
AFIX   0
C14   1    0.210529    1.211771    0.234169    11.00000    0.07146    0.03986 =
         0.07352   -0.01797    0.01041   -0.00838
AFIX  43
H14   2    0.197906    1.227338    0.277209    11.00000   -1.20000
AFIX   0
C15   1    0.143870    1.266027    0.173924    11.00000    0.04989    0.04982 =
         0.09188   -0.01282    0.00610   -0.01323
AFIX  43
H15   2    0.083129    1.317474    0.175598    11.00000   -1.20000
AFIX   0
C16   1    0.166667    1.244522    0.111388    11.00000    0.04558    0.04141 =
         0.09079   -0.00403   -0.01506   -0.01099
AFIX  43
H16   2    0.123474    1.283373    0.068532    11.00000   -1.20000
AFIX   0
C17   1    0.252579    1.166230    0.109969    11.00000    0.04843    0.04538 =
         0.06024   -0.00551   -0.01011   -0.01588
AFIX  43
H17   2    0.266809    1.153496    0.065664    11.00000   -1.20000
AFIX   0
C18   1    0.773208    0.740569    0.358113    11.00000    0.04784    0.05108 =
         0.04801   -0.00540   -0.00276   -0.02140
AFIX  43
H18   2    0.727885    0.709755    0.387253    11.00000   -1.20000
AFIX   0
C19   1    0.872629    0.726738    0.380138    11.00000    0.06310    0.05802 =
         0.05914    0.00261   -0.01960   -0.02812
AFIX  43
H19   2    0.908607    0.685802    0.425483    11.00000   -1.20000
AFIX   0
C20   1    0.907945    0.784820    0.322434    11.00000    0.04778    0.05016 =
         0.06361   -0.00623   -0.01464   -0.02035
AFIX  43
H20   2    0.975005    0.791289    0.320586    11.00000   -1.20000
AFIX   0
C21   1    0.789406    0.765906    0.092986    11.00000    0.05049    0.05436 =
         0.05493   -0.02027    0.01011   -0.02097
AFIX  43
H21   2    0.745275    0.740564    0.080022    11.00000   -1.20000
AFIX   0
C22   1    0.894322    0.752864    0.072299    11.00000    0.04925    0.06570 =
         0.06651   -0.02576    0.01685   -0.02272
AFIX  43
H22   2    0.935288    0.717965    0.043130    11.00000   -1.20000
AFIX   0
C23   1    0.925729    0.801894    0.103561    11.00000    0.04243    0.06064 =
         0.07489   -0.02700    0.02067   -0.02251
AFIX  43
H23   2    0.994294    0.805914    0.100217    11.00000   -1.20000
AFIX   0
C24   1    0.928213    0.940998    0.180556    11.00000    0.03384    0.04701 =
         0.06777   -0.00236   -0.00557   -0.01842
C25   1    0.945737    0.969338    0.235259    11.00000    0.05987    0.06779 =
         0.08134   -0.01004   -0.00788   -0.03550
AFIX  43
H25   2    0.906422    0.958725    0.279017    11.00000   -1.20000
AFIX   0
C26   1    1.018466    1.012468    0.228168    11.00000    0.07708    0.08168 =
         0.10980   -0.00378   -0.02890   -0.04969
AFIX  43
H26   2    1.027941    1.030672    0.266794    11.00000   -1.20000
AFIX   0
C27   1    1.076863    1.029049    0.165745    11.00000    0.06286    0.08365 =
         0.12251    0.00038   -0.01937   -0.04675
AFIX  43
H27   2    1.128703    1.056278    0.161696    11.00000   -1.20000
AFIX   0
C28   1    1.059374    1.006019    0.110262    11.00000    0.05393    0.08275 =
         0.11274   -0.00095    0.00271   -0.04245
AFIX  43
H28   2    1.097305    1.019680    0.066130    11.00000   -1.20000
AFIX   0
C29   1    0.986796    0.962618    0.116467    11.00000    0.04833    0.06523 =
         0.08012   -0.00900    0.01190   -0.03275
AFIX  43
H29   2    0.976521    0.947185    0.076426    11.00000   -1.20000
AFIX   0
C30   1    0.485305    0.348265    0.242806    11.00000    0.03244    0.03376 =
         0.03792   -0.00969    0.00597   -0.01254
C31   1    0.424288    0.312133    0.218365    11.00000    0.04319    0.03707 =
         0.03762   -0.00719   -0.00011   -0.01747
AFIX  43
H31   2    0.429934    0.249486    0.242893    11.00000   -1.20000
AFIX   0
C32   1    0.355624    0.367204    0.158559    11.00000    0.04212    0.04051 =
         0.04321   -0.01145   -0.00138   -0.02046
AFIX  43
H32   2    0.313964    0.342670    0.142028    11.00000   -1.20000
AFIX   0
C33   1    0.348203    0.457820    0.123231    11.00000    0.03320    0.03898 =
         0.03763   -0.00639    0.00032   -0.01534
AFIX  43
H33   2    0.301319    0.495903    0.082087    11.00000   -1.20000
AFIX   0
C34   1    0.408631    0.493745    0.147302    11.00000    0.02435    0.03582 =
         0.03103   -0.00849    0.00293   -0.00932
C35   1    0.401472    0.680320    0.254437    11.00000    0.03940    0.04362 =
         0.04317   -0.01693    0.00323   -0.01514
AFIX  43
H35   2    0.428374    0.671196    0.300339    11.00000   -1.20000
AFIX   0
C36   1    0.329764    0.762548    0.209859    11.00000    0.04712    0.03981 =
         0.05158   -0.01577   -0.00211   -0.00603
AFIX  43
H36   2    0.297247    0.818816    0.219135    11.00000   -1.20000
AFIX   0
C37   1    0.316067    0.745022    0.149717    11.00000    0.03854    0.03542 =
         0.04974   -0.01014   -0.00066   -0.01072
AFIX  43
H37   2    0.273174    0.788929    0.107819    11.00000   -1.20000
AFIX   0
C38   1    0.682281    0.574550    0.103661    11.00000    0.03047    0.04298 =
         0.04610   -0.01418    0.00386   -0.01575
AFIX  43
H38   2    0.747743    0.553488    0.128952    11.00000   -1.20000
AFIX   0
C39   1    0.662533    0.629779    0.031411    11.00000    0.03881    0.04220 =
         0.04755   -0.00843    0.00600   -0.02235
AFIX  43
H39   2    0.710223    0.652635   -0.002627    11.00000   -1.20000
AFIX   0
C40   1    0.558689    0.644859    0.018978    11.00000    0.03758    0.04276 =
         0.03965   -0.00849    0.00459   -0.02127
AFIX  43
H40   2    0.520680    0.682061   -0.026251    11.00000   -1.20000
AFIX   0
C41   1    0.325462    0.648092    0.033395    11.00000    0.03312    0.02751 =
         0.03840   -0.00369    0.00133   -0.01441
C42   1    0.218232    0.705366    0.031128    11.00000    0.03367    0.04540 =
         0.04047   -0.01317    0.00051   -0.00966
AFIX  43
H42   2    0.189339    0.719469    0.073648    11.00000   -1.20000
AFIX   0
C43   1    0.152657    0.742249   -0.030568    11.00000    0.03592    0.04441 =
         0.05402   -0.01038   -0.00666   -0.01019
AFIX  43
H43   2    0.081925    0.783461   -0.030471    11.00000   -1.20000
AFIX   0
C44   1    0.189950    0.719210   -0.091762    11.00000    0.05093    0.04893 =
         0.04253   -0.00238   -0.00802   -0.02783
AFIX  43
H44   2    0.145481    0.743994   -0.134017    11.00000   -1.20000
AFIX   0
C45   1    0.293290    0.659350   -0.090637    11.00000    0.04596    0.04901 =
         0.04037   -0.01120    0.00161   -0.02562
AFIX  43
H45   2    0.319702    0.641737   -0.132059    11.00000   -1.20000
AFIX   0
C46   1    0.358595    0.624876   -0.029445    11.00000    0.03551    0.04363 =
         0.04165   -0.01213    0.00291   -0.01767
AFIX  43
H46   2    0.429091    0.583589   -0.030175    11.00000   -1.20000
AFIX   0
C47   1    0.491172    0.455360    0.407733    11.00000    0.04515    0.04181 =
         0.03817   -0.00903    0.00140   -0.01556
AFIX  43
H47   2    0.480108    0.515591    0.406922    11.00000   -1.20000
AFIX   0
C48   1    0.484699    0.382486    0.469528    11.00000    0.05740    0.05591 =
         0.03245   -0.01161    0.00586   -0.02625
AFIX  43
H48   2    0.467086    0.382894    0.517772    11.00000   -1.20000
AFIX   0
C49   1    0.509554    0.309028    0.445424    11.00000    0.05490    0.04279 =
         0.03361   -0.00370   -0.00565   -0.02140
AFIX  43
H49   2    0.514101    0.247972    0.475410    11.00000   -1.20000
AFIX   0
C50   1    0.794814    0.351434    0.259647    11.00000    0.03498    0.04819 =
         0.04687   -0.01031   -0.00020   -0.01462
AFIX  43
H50   2    0.826218    0.397416    0.239172    11.00000   -1.20000
AFIX   0
C51   1    0.850579    0.257360    0.291272    11.00000    0.03819    0.04433 =
         0.06475   -0.01461   -0.00411   -0.00577
AFIX  43
H51   2    0.925432    0.226621    0.295413    11.00000   -1.20000
AFIX   0
C52   1    0.774331    0.218553    0.315171    11.00000    0.04366    0.03706 =
         0.05614   -0.01024   -0.00869   -0.00531
AFIX  43
H52   2    0.787125    0.154689    0.341121    11.00000   -1.20000
AFIX   0
C53   1    0.556481    0.182981    0.346701    11.00000    0.05037    0.03423 =
         0.04028   -0.00371   -0.00608   -0.01567
C54   1    0.620257    0.114770    0.318626    11.00000    0.06105    0.03944 =
         0.04677   -0.00960   -0.00867   -0.01526
AFIX  43
H54   2    0.674948    0.126372    0.285894    11.00000   -1.20000
AFIX   0
C55   1    0.606336    0.030302    0.337023    11.00000    0.08340    0.04138 =
         0.05276   -0.01186   -0.01147   -0.01780
AFIX  43
H55   2    0.651677   -0.014713    0.317323    11.00000   -1.20000
AFIX   0
C56   1    0.527591    0.012260    0.383325    11.00000    0.09526    0.04346 =
         0.05543   -0.00512   -0.01490   -0.03528
AFIX  43
H56   2    0.518273   -0.045389    0.396177    11.00000   -1.20000
AFIX   0
C57   1    0.461349    0.078487    0.411463    11.00000    0.08216    0.05475 =
         0.05014   -0.00799    0.00017   -0.03831
AFIX  43
H57   2    0.405816    0.066744    0.443216    11.00000   -1.20000
AFIX   0
C58   1    0.476258    0.161132    0.393288    11.00000    0.06442    0.04061 =
         0.04479   -0.00729   -0.00087   -0.02893
AFIX  43
H58   2    0.430064    0.205600    0.413205    11.00000   -1.20000
AFIX   0
C59   1    0.818075    0.561146    0.313785    11.00000    0.03558    0.04478 =
         0.04237   -0.01365   -0.00269   -0.01444
C60   1    0.861403    0.506868    0.381442    11.00000    0.04087    0.07937 =
         0.04775    0.00382   -0.00027   -0.01807
AFIX  43
H60   2    0.817403    0.488552    0.420991    11.00000   -1.20000
AFIX   0
C62   1    1.037571    0.500837    0.337047    11.00000    0.03830    0.05394 =
         0.05191   -0.01809    0.00632   -0.01824
C63   1    1.156492    0.471231    0.350231    11.00000    0.03373    0.08131 =
         0.07994   -0.02529   -0.00026   -0.01654

C67   1    0.989316    0.553781    0.269530    11.00000    0.04447    0.08961 =
         0.04878   -0.00553    0.00649   -0.02075
AFIX  43
H67   2    1.032376    0.571101    0.229013    11.00000   -1.20000
AFIX   0
C68   1    0.882193    0.583075    0.257360    11.00000    0.04374    0.09006 =
         0.04316   -0.00960    0.00194   -0.01504
AFIX  43
H68   2    0.852968    0.618837    0.209208    11.00000   -1.20000
AFIX   0
FE1   7    0.634390    0.828790    0.212252    11.00000    0.03155    0.03764 =
         0.04250   -0.01126    0.00531   -0.01491
FE2   7    0.563346    0.494957    0.244670    11.00000    0.02871    0.03133 =
         0.03283   -0.00698    0.00022   -0.01106
N1    3    0.627041    0.969005    0.179534    11.00000    0.03476    0.03365 =
         0.03761   -0.00285   -0.00026   -0.01695
N2    3    0.510194    0.862668    0.281759    11.00000    0.03321    0.03086 =
         0.04281   -0.00710    0.00581   -0.00971
N3    3    0.420705    0.939208    0.255045    11.00000    0.03232    0.03467 =
         0.04095   -0.01064    0.00190   -0.01395
N4    3    0.514518    0.884812    0.130240    11.00000    0.03921    0.04972 =
         0.04464   -0.01945    0.00906   -0.02039
N5    3    0.429008    0.964610    0.121395    11.00000    0.03743    0.05026 =
         0.04017   -0.01187   -0.00044   -0.02398
N6    3    0.748690    0.803086    0.290292    11.00000    0.04082    0.03734 =
         0.05087   -0.00829    0.00109   -0.01786
N7    3    0.833853    0.831425    0.268699    11.00000    0.03130    0.04414 =
         0.05340   -0.01033   -0.00041   -0.01680
N8    3    0.760221    0.819723    0.134013    11.00000    0.03687    0.04147 =
         0.04904   -0.01290    0.01216   -0.01747
N9    3    0.844362    0.842632    0.139157    11.00000    0.03693    0.04781 =
         0.05349   -0.01532    0.01096   -0.01906
N10   3    0.649000    0.702047    0.240307    11.00000    0.02949    0.03794 =
         0.04885   -0.01635    0.00590   -0.01428
N11   3    0.474518    0.438714    0.206271    11.00000    0.02729    0.03279 =
         0.03227   -0.00868    0.00242   -0.01104
N12   3    0.427725    0.615263    0.223816    11.00000    0.03124    0.03295 =
         0.03690   -0.01291    0.00331   -0.00953
N13   3    0.373321    0.654926    0.158960    11.00000    0.02935    0.03246 =
         0.03636   -0.00548   -0.00157   -0.01053
N14   3    0.596678    0.554219    0.133883    11.00000    0.02654    0.04012 =
         0.03709   -0.01028    0.00279   -0.01192
N15   3    0.518890    0.598896    0.080648    11.00000    0.02857    0.03866 =
         0.03197   -0.00896    0.00194   -0.01464
N16   3    0.515261    0.428791    0.349264    11.00000    0.03973    0.03012 =
         0.03641   -0.00884    0.00270   -0.01426
N17   3    0.526300    0.337541    0.372836    11.00000    0.04326    0.03201 =
         0.03159   -0.00324   -0.00046   -0.01527
N18   3    0.691681    0.367884    0.262104    11.00000    0.03239    0.03362 =
         0.03725   -0.00710   -0.00211   -0.00914
N19   3    0.678463    0.285176    0.296085    11.00000    0.03879    0.03199 =
         0.03759   -0.00655   -0.00359   -0.00950
O1    4    0.631733    0.602674    0.370574    11.00000    0.04146    0.05405 =
         0.04440   -0.01527    0.00841   -0.01855
O2    4    0.657846    0.538853    0.273365    11.00000    0.04474    0.04213 =
         0.04910   -0.01257   -0.00375   -0.01783
S1    6    0.677611    0.607344    0.298648    11.00000    0.03278    0.04190 =
         0.04376   -0.01325    0.00194   -0.01523
C61   1    0.970396    0.477739    0.393299    11.00000    0.03998    0.08751 =
         0.04754   -0.00002   -0.00434   -0.02120
AFIX  43
H61   2    0.999276    0.440972    0.441418    11.00000   -1.20000
PART 1  21
AFIX   0
C80A  1    0.873283    0.187684    0.575044    21.00000    0.07274    0.12482 =
         0.08751   -0.03788    0.00280   -0.04149
AFIX  43
H80A  2    0.923282    0.126566    0.594666    21.00000   -1.20000
AFIX   0
C75A  1    0.843531    0.224526    0.502174    21.00000    0.07310    0.12421 =
         0.08733   -0.03734    0.00599   -0.04147
AFIX  43
H75A  2    0.872937    0.188592    0.471707    21.00000   -1.20000
AFIX   0
C76A  1    0.771071    0.313558    0.472857    21.00000    0.07081    0.12253 =
         0.08527   -0.03702    0.00697   -0.04322
AFIX  43
H76A  2    0.750829    0.338667    0.422438    21.00000   -1.20000
AFIX   0
C79A  1    0.830493    0.239514    0.620027    21.00000    0.06843    0.12289 =
         0.08647   -0.03686    0.00353   -0.04539
AFIX  43
H79A  2    0.850543    0.213956    0.670501    21.00000   -1.20000
AFIX   0
C77A  1    0.727988    0.366145    0.517421    21.00000    0.06814    0.11939 =
         0.08528   -0.03845    0.00513   -0.04727
AFIX  43
H77A  2    0.678080    0.427280    0.497659    21.00000   -1.20000
AFIX   0
C78A  1    0.758223    0.328924    0.590716    21.00000    0.06572    0.12056 =
         0.08518   -0.03826    0.00567   -0.04778
AFIX  43
H78A  2    0.729257    0.364886    0.621204    21.00000   -1.20000
PART 2  -21
AFIX   0
C80B  1    0.872621    0.157462    0.562538   -21.00000    0.07164    0.12392 =
         0.08716   -0.03738    0.00337   -0.04308
AFIX  43
H80B  2    0.913774    0.093902    0.572396   -21.00000   -1.20000
AFIX   0
C79B  1    0.862998    0.196420    0.615753   -21.00000    0.07076    0.12335 =
         0.08730   -0.03760    0.00365   -0.04389
AFIX  43
H79B  2    0.897733    0.159126    0.662120   -21.00000   -1.20000
AFIX   0
C78B  1    0.803226    0.289210    0.601986   -21.00000    0.06947    0.12226 =
         0.08648   -0.03780    0.00438   -0.04501
AFIX  43
H78B  2    0.797086    0.315356    0.638669   -21.00000   -1.20000
AFIX   0
C76B  1    0.761751    0.304836    0.480562   -21.00000    0.07060    0.12234 =
         0.08581   -0.03732    0.00592   -0.04383
AFIX  43
H76B  2    0.727040    0.341965    0.434167   -21.00000   -1.20000
AFIX   0
C77B  1    0.752304    0.343716    0.533978   -21.00000    0.06878    0.12166 =
         0.08600   -0.03749    0.00539   -0.04576
AFIX  43
H77B  2    0.711212    0.407295    0.524080   -21.00000   -1.20000
AFIX   0
C75B  1    0.821746    0.211963    0.494884   -21.00000    0.07161    0.12363 =
         0.08677   -0.03741    0.00486   -0.04278
AFIX  43
H75B  2    0.827983    0.185668    0.458286   -21.00000   -1.20000
PART 0
AFIX   0
PART  1 31
C64A  1    1.216833    0.517599    0.289459    31.00000    0.05322    0.09587 =
         0.08723   -0.03392    0.00688   -0.03546
AFIX  33
H64A  2    1.291970    0.492846    0.303998    31.00000   -1.50000
H64B  2    1.188142    0.584410    0.279501    31.00000   -1.50000
H64C  2    1.209838    0.505856    0.245147    31.00000   -1.50000
AFIX   0
C66A  1    1.206858    0.365592    0.368124    31.00000    0.06764    0.08902 =
         0.10545   -0.02741    0.00415   -0.01584
AFIX  33
H66A  2    1.283428    0.345205    0.376753    31.00000   -1.50000
H66B  2    1.194412    0.350575    0.326791    31.00000   -1.50000
H66C  2    1.174688    0.333970    0.412181    31.00000   -1.50000
AFIX   0
C65A  1    1.169277    0.489131    0.421058    31.00000    0.05980    0.09016 =
         0.07728   -0.01722   -0.00978   -0.03142
AFIX  33
H65A  2    1.244890    0.470752    0.431749    31.00000   -1.50000
H65B  2    1.137416    0.452780    0.462420    31.00000   -1.50000
H65C  2    1.133535    0.555074    0.413373    31.00000   -1.50000
AFIX   0
PART  2 -31
C66B  1    1.213215    0.386558    0.325632   -31.00000    0.06153    0.09280 =
         0.09824   -0.03403    0.00415   -0.00889
AFIX  33
H66D  2    1.290028    0.365703    0.333535   -31.00000   -1.50000
H66E  2    1.197785    0.404312    0.273455   -31.00000   -1.50000
H66F  2    1.187611    0.336251    0.354392   -31.00000   -1.50000
AFIX   0
C64B  1    1.195189    0.547002    0.294738   -31.00000    0.05304    0.10240 =
         0.08717   -0.03001    0.00604   -0.03906
AFIX  33
H64D  2    1.271587    0.529425    0.302198   -31.00000   -1.50000
H64E  2    1.157195    0.605971    0.302190   -31.00000   -1.50000
H64F  2    1.181298    0.553606    0.244677   -31.00000   -1.50000
AFIX   0
C65B  1    1.189411    0.448594    0.427505   -31.00000    0.06466    0.09750 =
         0.08283   -0.01637   -0.01081   -0.03442
AFIX  33
H65D  2    1.266720    0.430200    0.430613   -31.00000   -1.50000
H65E  2    1.167738    0.397628    0.460577   -31.00000   -1.50000
H65F  2    1.155269    0.503175    0.441779   -31.00000   -1.50000
PART  0
AFIX   0
HKLF 4

REM  ds119_0m_a.res in P-1
REM R1 =  0.0769 for    8717 Fo > 4sig(Fo)  and  0.1121 for all   14328 data
REM   1002 parameters refined using   1386 restraints

END

WGHT      0.1232      0.0000

REM Instructions for potential hydrogen bonds
HTAB C8 O1
HTAB C48 O1_$1

REM Highest difference peak  1.564,  deepest hole -0.551,  1-sigma level  0.090
Q1    1   0.7027  0.5009  0.3590  11.00000  0.05    1.56
Q2    1   0.6991  0.8282  0.2364  11.00000  0.05    0.86
Q3    1   0.5603  0.8399  0.1777  11.00000  0.05    0.79
Q4    1   0.6117  0.8901  0.1735  11.00000  0.05    0.77
Q5    1   0.7113  0.7984  0.2557  11.00000  0.05    0.72
Q6    1   0.7181  0.4010  0.4033  11.00000  0.05    0.70
Q7    1   0.6669  0.7406  0.2482  11.00000  0.05    0.70
Q8    1   0.6740  0.6984  0.2675  11.00000  0.05    0.61
Q9    1   0.6155  0.7445  0.2209  11.00000  0.05    0.55
Q10   1   0.6221  0.5014  0.2678  11.00000  0.05    0.49
Q11   1   0.5059  0.4836  0.2253  11.00000  0.05    0.48
Q12   1   0.5766  0.7062  0.2190  11.00000  0.05    0.48
Q13   1   0.5244  0.3075  0.2775  11.00000  0.05    0.44
Q14   1   0.5445  0.9252  0.1331  11.00000  0.05    0.43
Q15   1   0.5369  0.5761  0.2000  11.00000  0.05    0.43
Q16   1   0.5251  0.8218  0.1637  11.00000  0.05    0.42
Q17   1   0.7590  0.8228  0.2566  11.00000  0.05    0.42
Q18   1   0.5847  0.4218  0.2786  11.00000  0.05    0.41
Q19   1   0.3966  0.5379  0.1178  11.00000  0.05    0.40
Q20   1   0.6000  0.5253  0.3176  11.00000  0.05    0.38
;
_shelx_res_checksum              85961
loop_
_space_group_symop_operation_xyz
'x, y, z'
'-x, -y, -z'
loop_
_atom_site_label
_atom_site_type_symbol
_atom_site_fract_x
_atom_site_fract_y
_atom_site_fract_z
_atom_site_U_iso_or_equiv
_atom_site_adp_type
_atom_site_occupancy
_atom_site_site_symmetry_order
_atom_site_calc_flag
_atom_site_refinement_flags_posn
_atom_site_refinement_flags_adp
_atom_site_refinement_flags_occupancy
_atom_site_disorder_assembly
_atom_site_disorder_group
B1 B 0.4213(4) 1.0147(4) 0.1773(3) 0.0392(11) Uani 1 1 d . U . . .
B2 B 0.8330(4) 0.9020(4) 0.1896(3) 0.0451(12) Uani 1 1 d . U . . .
B3 B 0.4028(4) 0.6002(3) 0.1039(3) 0.0331(10) Uani 1 1 d . U . . .
B4 B 0.5621(4) 0.2855(3) 0.3158(3) 0.0380(11) Uani 1 1 d . U . . .
C1 C 0.5297(3) 1.0384(3) 0.1682(2) 0.0353(9) Uani 1 1 d . U . . .
C2 C 0.5257(4) 1.1290(3) 0.1430(3) 0.0427(11) Uani 1 1 d . U . . .
H2 H 0.4588 1.1781 0.1337 0.051 Uiso 1 1 calc R U . . .
C3 C 0.6177(4) 1.1493(3) 0.1312(3) 0.0448(11) Uani 1 1 d . U . . .
H3 H 0.6144 1.2116 0.1141 0.054 Uiso 1 1 calc R U . . .
C4 C 0.7143(4) 1.0775(3) 0.1447(3) 0.0439(11) Uani 1 1 d . U . . .
H4 H 0.7780 1.0907 0.1366 0.053 Uiso 1 1 calc R U . . .
C5 C 0.7195(4) 0.9868(3) 0.1698(2) 0.0379(10) Uani 1 1 d . U . . .
C6 C 0.3412(4) 0.9287(3) 0.3018(3) 0.0424(11) Uani 1 1 d . U . . .
H6 H 0.2701 0.9713 0.2954 0.051 Uiso 1 1 calc R U . . .
C7 C 0.3785(4) 0.8480(3) 0.3592(3) 0.0444(11) Uani 1 1 d . U . . .
H7 H 0.3401 0.8242 0.4005 0.053 Uiso 1 1 calc R U . . .
C8 C 0.4838(4) 0.8078(3) 0.3449(3) 0.0433(11) Uani 1 1 d . U . . .
H8 H 0.5308 0.7497 0.3753 0.052 Uiso 1 1 calc R U . . .
C9 C 0.3682(4) 0.9800(4) 0.0656(3) 0.0516(12) Uani 1 1 d . U . . .
H9 H 0.3034 1.0305 0.0492 0.062 Uiso 1 1 calc R U . . .
C10 C 0.4124(4) 0.9132(4) 0.0358(3) 0.0555(13) Uani 1 1 d . U . . .
H10 H 0.3866 0.9080 -0.0048 0.067 Uiso 1 1 calc R U . . .
C11 C 0.5047(4) 0.8534(4) 0.0785(3) 0.0541(13) Uani 1 1 d . U . . .
H11 H 0.5532 0.7986 0.0717 0.065 Uiso 1 1 calc R U . . .
C12 C 0.3186(4) 1.1057(3) 0.1714(3) 0.0418(10) Uani 1 1 d . U . . .
C13 C 0.2957(4) 1.1348(3) 0.2322(3) 0.0549(13) Uani 1 1 d . U . . .
H13 H 0.3414 1.0994 0.2743 0.066 Uiso 1 1 calc R U . . .
C14 C 0.2105(5) 1.2118(4) 0.2342(4) 0.0665(16) Uani 1 1 d . U . . .
H14 H 0.1979 1.2273 0.2772 0.080 Uiso 1 1 calc R U . . .
C15 C 0.1439(5) 1.2660(4) 0.1739(4) 0.0693(16) Uani 1 1 d . U . . .
H15 H 0.0831 1.3175 0.1756 0.083 Uiso 1 1 calc R U . . .
C16 C 0.1667(4) 1.2445(4) 0.1114(4) 0.0650(15) Uani 1 1 d . U . . .
H16 H 0.1235 1.2834 0.0685 0.078 Uiso 1 1 calc R U . . .
C17 C 0.2526(4) 1.1662(4) 0.1100(3) 0.0545(13) Uani 1 1 d . U . . .
H17 H 0.2668 1.1535 0.0657 0.065 Uiso 1 1 calc R U . . .
C18 C 0.7732(4) 0.7406(4) 0.3581(3) 0.0511(12) Uani 1 1 d . U . . .
H18 H 0.7279 0.7098 0.3873 0.061 Uiso 1 1 calc R U . . .
C19 C 0.8726(5) 0.7267(4) 0.3801(3) 0.0632(15) Uani 1 1 d . U . . .
H19 H 0.9086 0.6858 0.4255 0.076 Uiso 1 1 calc R U . . .
C20 C 0.9079(4) 0.7848(4) 0.3224(3) 0.0557(13) Uani 1 1 d . U . . .
H20 H 0.9750 0.7913 0.3206 0.067 Uiso 1 1 calc R U . . .
C21 C 0.7894(4) 0.7659(4) 0.0930(3) 0.0530(12) Uani 1 1 d . U . . .
H21 H 0.7453 0.7406 0.0800 0.064 Uiso 1 1 calc R U . . .
C22 C 0.8943(4) 0.7529(4) 0.0723(3) 0.0604(14) Uani 1 1 d . U . . .
H22 H 0.9353 0.7180 0.0431 0.073 Uiso 1 1 calc R U . . .
C23 C 0.9257(4) 0.8019(4) 0.1036(3) 0.0588(14) Uani 1 1 d . U . . .
H23 H 0.9943 0.8059 0.1002 0.071 Uiso 1 1 calc R U . . .
C24 C 0.9282(4) 0.9410(4) 0.1806(3) 0.0531(12) Uani 1 1 d . U . . .
C25 C 0.9457(5) 0.9693(4) 0.2353(4) 0.0698(16) Uani 1 1 d . U . . .
H25 H 0.9064 0.9587 0.2790 0.084 Uiso 1 1 calc R U . . .
C26 C 1.0185(6) 1.0125(5) 0.2282(5) 0.089(2) Uani 1 1 d . U . . .
H26 H 1.0279 1.0307 0.2668 0.107 Uiso 1 1 calc R U . . .
C27 C 1.0769(6) 1.0290(5) 0.1657(5) 0.092(2) Uani 1 1 d . U . . .
H27 H 1.1287 1.0563 0.1617 0.111 Uiso 1 1 calc R U . . .
C28 C 1.0594(5) 1.0060(5) 0.1103(5) 0.088(2) Uani 1 1 d . U . . .
H28 H 1.0973 1.0197 0.0661 0.105 Uiso 1 1 calc R U . . .
C29 C 0.9868(4) 0.9626(4) 0.1165(4) 0.0667(16) Uani 1 1 d . U . . .
H29 H 0.9765 0.9472 0.0764 0.080 Uiso 1 1 calc R U . . .
C30 C 0.4853(3) 0.3483(3) 0.2428(2) 0.0358(9) Uani 1 1 d . U . . .
C31 C 0.4243(4) 0.3121(3) 0.2184(2) 0.0400(10) Uani 1 1 d . U . . .
H31 H 0.4299 0.2495 0.2429 0.048 Uiso 1 1 calc R U . . .
C32 C 0.3556(4) 0.3672(3) 0.1586(3) 0.0409(10) Uani 1 1 d . U . . .
H32 H 0.3140 0.3427 0.1420 0.049 Uiso 1 1 calc R U . . .
C33 C 0.3482(4) 0.4578(3) 0.1232(2) 0.0379(10) Uani 1 1 d . U . . .
H33 H 0.3013 0.4959 0.0821 0.046 Uiso 1 1 calc R U . . .
C34 C 0.4086(3) 0.4937(3) 0.1473(2) 0.0320(9) Uani 1 1 d . U . . .
C35 C 0.4015(4) 0.6803(3) 0.2544(3) 0.0416(10) Uani 1 1 d . U . . .
H35 H 0.4284 0.6712 0.3003 0.050 Uiso 1 1 calc R U . . .
C36 C 0.3298(4) 0.7625(3) 0.2099(3) 0.0489(12) Uani 1 1 d . U . . .
H36 H 0.2972 0.8188 0.2191 0.059 Uiso 1 1 calc R U . . .
C37 C 0.3161(4) 0.7450(3) 0.1497(3) 0.0433(11) Uani 1 1 d . U . . .
H37 H 0.2732 0.7889 0.1078 0.052 Uiso 1 1 calc R U . . .
C38 C 0.6823(4) 0.5745(3) 0.1037(3) 0.0397(10) Uani 1 1 d . U . . .
H38 H 0.7477 0.5535 0.1290 0.048 Uiso 1 1 calc R U . . .
C39 C 0.6625(4) 0.6298(3) 0.0314(3) 0.0431(11) Uani 1 1 d . U . . .
H39 H 0.7102 0.6526 -0.0026 0.052 Uiso 1 1 calc R U . . .
C40 C 0.5587(4) 0.6449(3) 0.0190(3) 0.0400(10) Uani 1 1 d . U . . .
H40 H 0.5207 0.6821 -0.0263 0.048 Uiso 1 1 calc R U . . .
C41 C 0.3255(3) 0.6481(3) 0.0334(2) 0.0343(9) Uani 1 1 d . U . . .
C42 C 0.2182(4) 0.7054(3) 0.0311(3) 0.0417(10) Uani 1 1 d . U . . .
H42 H 0.1893 0.7195 0.0736 0.050 Uiso 1 1 calc R U . . .
C43 C 0.1527(4) 0.7422(3) -0.0306(3) 0.0474(11) Uani 1 1 d . U . . .
H43 H 0.0819 0.7835 -0.0305 0.057 Uiso 1 1 calc R U . . .
C44 C 0.1900(4) 0.7192(3) -0.0918(3) 0.0477(11) Uani 1 1 d . U . . .
H44 H 0.1455 0.7440 -0.1340 0.057 Uiso 1 1 calc R U . . .
C45 C 0.2933(4) 0.6593(3) -0.0906(3) 0.0439(11) Uani 1 1 d . U . . .
H45 H 0.3197 0.6417 -0.1321 0.053 Uiso 1 1 calc R U . . .
C46 C 0.3586(4) 0.6249(3) -0.0294(2) 0.0402(10) Uani 1 1 d . U . . .
H46 H 0.4291 0.5836 -0.0302 0.048 Uiso 1 1 calc R U . . .
C47 C 0.4912(4) 0.4554(3) 0.4077(2) 0.0432(11) Uani 1 1 d . U . . .
H47 H 0.4801 0.5156 0.4069 0.052 Uiso 1 1 calc R U . . .
C48 C 0.4847(4) 0.3825(4) 0.4695(3) 0.0483(12) Uani 1 1 d . U . . .
H48 H 0.4671 0.3829 0.5178 0.058 Uiso 1 1 calc R U . . .
C49 C 0.5096(4) 0.3090(3) 0.4454(2) 0.0449(11) Uani 1 1 d . U . . .
H49 H 0.5141 0.2480 0.4754 0.054 Uiso 1 1 calc R U . . .
C50 C 0.7948(4) 0.3514(3) 0.2596(3) 0.0452(11) Uani 1 1 d . U . . .
H50 H 0.8262 0.3974 0.2392 0.054 Uiso 1 1 calc R U . . .
C51 C 0.8506(4) 0.2574(3) 0.2913(3) 0.0527(13) Uani 1 1 d . U . . .
H51 H 0.9254 0.2266 0.2954 0.063 Uiso 1 1 calc R U . . .
C52 C 0.7743(4) 0.2186(3) 0.3152(3) 0.0494(12) Uani 1 1 d . U . . .
H52 H 0.7871 0.1547 0.3411 0.059 Uiso 1 1 calc R U . . .
C53 C 0.5565(4) 0.1830(3) 0.3467(3) 0.0436(11) Uani 1 1 d . U . . .
C54 C 0.6203(5) 0.1148(3) 0.3186(3) 0.0507(12) Uani 1 1 d . U . . .
H54 H 0.6749 0.1264 0.2859 0.061 Uiso 1 1 calc R U . . .
C55 C 0.6063(5) 0.0303(4) 0.3370(3) 0.0608(14) Uani 1 1 d . U . . .
H55 H 0.6517 -0.0147 0.3173 0.073 Uiso 1 1 calc R U . . .
C56 C 0.5276(5) 0.0123(4) 0.3833(3) 0.0637(15) Uani 1 1 d . U . . .
H56 H 0.5183 -0.0454 0.3962 0.076 Uiso 1 1 calc R U . . .
C57 C 0.4613(5) 0.0785(4) 0.4115(3) 0.0611(14) Uani 1 1 d . U . . .
H57 H 0.4058 0.0667 0.4432 0.073 Uiso 1 1 calc R U . . .
C58 C 0.4763(4) 0.1611(3) 0.3933(3) 0.0489(12) Uani 1 1 d . U . . .
H58 H 0.4301 0.2056 0.4132 0.059 Uiso 1 1 calc R U . . .
C59 C 0.8181(4) 0.5611(3) 0.3138(3) 0.0410(10) Uani 1 1 d . U . . .
C60 C 0.8614(4) 0.5069(4) 0.3814(3) 0.0648(16) Uani 1 1 d . U . . .
H60 H 0.8174 0.4886 0.4210 0.078 Uiso 1 1 calc R U . . .
C62 C 1.0376(4) 0.5008(4) 0.3370(3) 0.0481(11) Uani 1 1 d . U . . .
C63 C 1.1565(4) 0.4712(4) 0.3502(3) 0.0670(15) Uani 1 1 d D U . . .
C67 C 0.9893(5) 0.5538(5) 0.2695(3) 0.0681(17) Uani 1 1 d . U . . .
H67 H 1.0324 0.5711 0.2290 0.082 Uiso 1 1 calc R U . . .
C68 C 0.8822(4) 0.5831(5) 0.2574(3) 0.0659(17) Uani 1 1 d . U . . .
H68 H 0.8530 0.6188 0.2092 0.079 Uiso 1 1 calc R U . . .
Fe1 Fe 0.63439(6) 0.82879(5) 0.21225(4) 0.03770(19) Uani 1 1 d . U . . .
Fe2 Fe 0.56335(5) 0.49496(4) 0.24467(4) 0.03209(17) Uani 1 1 d . U . . .
N1 N 0.6270(3) 0.9690(2) 0.1795(2) 0.0367(8) Uani 1 1 d . U . . .
N2 N 0.5102(3) 0.8627(2) 0.2818(2) 0.0384(8) Uani 1 1 d . U . . .
N3 N 0.4207(3) 0.9392(2) 0.2550(2) 0.0363(8) Uani 1 1 d . U . . .
N4 N 0.5145(3) 0.8848(3) 0.1302(2) 0.0430(9) Uani 1 1 d . U . . .
N5 N 0.4290(3) 0.9646(3) 0.1214(2) 0.0411(9) Uani 1 1 d . U . . .
N6 N 0.7487(3) 0.8031(3) 0.2903(2) 0.0440(9) Uani 1 1 d . U . . .
N7 N 0.8339(3) 0.8314(3) 0.2687(2) 0.0439(9) Uani 1 1 d . U . . .
N8 N 0.7602(3) 0.8197(3) 0.1340(2) 0.0433(9) Uani 1 1 d . U . . .
N9 N 0.8444(3) 0.8426(3) 0.1392(2) 0.0465(9) Uani 1 1 d . U . . .
N10 N 0.6490(3) 0.7020(3) 0.2403(2) 0.0382(8) Uani 1 1 d . U . . .
N11 N 0.4745(3) 0.4387(2) 0.20627(18) 0.0317(7) Uani 1 1 d . U . . .
N12 N 0.4277(3) 0.6153(2) 0.22382(19) 0.0343(8) Uani 1 1 d . U . . .
N13 N 0.3733(3) 0.6549(2) 0.15896(19) 0.0347(8) Uani 1 1 d . U . . .
N14 N 0.5967(3) 0.5542(2) 0.1339(2) 0.0357(8) Uani 1 1 d . U . . .
N15 N 0.5189(3) 0.5989(2) 0.08065(19) 0.0334(8) Uani 1 1 d . U . . .
N16 N 0.5153(3) 0.4288(2) 0.34926(19) 0.0359(8) Uani 1 1 d . U . . .
N17 N 0.5263(3) 0.3375(2) 0.37284(19) 0.0373(8) Uani 1 1 d . U . . .
N18 N 0.6917(3) 0.3679(2) 0.2621(2) 0.0366(8) Uani 1 1 d . U . . .
N19 N 0.6785(3) 0.2852(2) 0.2961(2) 0.0384(8) Uani 1 1 d . U . . .
O1 O 0.6317(3) 0.6027(2) 0.37057(18) 0.0474(8) Uani 1 1 d . U . . .
O2 O 0.6578(3) 0.5389(2) 0.27336(18) 0.0452(8) Uani 1 1 d . U . . .
S1 S 0.67761(9) 0.60734(8) 0.29865(6) 0.0395(3) Uani 1 1 d . U . . .
C61 C 0.9704(4) 0.4777(4) 0.3933(3) 0.0655(17) Uani 1 1 d . U . . .
H61 H 0.9993 0.4410 0.4414 0.079 Uiso 1 1 calc R U . . .
C80A C 0.8733(7) 0.1877(8) 0.5750(6) 0.093(2) Uani 0.789(18) 1 d D U P A 1
H80A H 0.9233 0.1266 0.5947 0.112 Uiso 0.789(18) 1 calc R U P A 1
C75A C 0.8435(7) 0.2245(7) 0.5022(6) 0.093(2) Uani 0.789(18) 1 d D U P A 1
H75A H 0.8729 0.1886 0.4717 0.112 Uiso 0.789(18) 1 calc R U P A 1
C76A C 0.7711(7) 0.3136(8) 0.4729(5) 0.0905(19) Uani 0.789(18) 1 d D U P A 1
H76A H 0.7508 0.3387 0.4224 0.109 Uiso 0.789(18) 1 calc R U P A 1
C79A C 0.8305(8) 0.2395(8) 0.6200(5) 0.0892(19) Uani 0.789(18) 1 d D U P A 1
H79A H 0.8505 0.2140 0.6705 0.107 Uiso 0.789(18) 1 calc R U P A 1
C77A C 0.7280(7) 0.3661(7) 0.5174(5) 0.0862(18) Uani 0.789(18) 1 d D U P A 1
H77A H 0.6781 0.4273 0.4977 0.103 Uiso 0.789(18) 1 calc R U P A 1
C78A C 0.7582(8) 0.3289(8) 0.5907(5) 0.0857(19) Uani 0.789(18) 1 d D U P A 1
H78A H 0.7293 0.3649 0.6212 0.103 Uiso 0.789(18) 1 calc R U P A 1
C80B C 0.873(2) 0.157(2) 0.5625(19) 0.092(2) Uani 0.211(18) 1 d D U P A 2
H80B H 0.9138 0.0939 0.5724 0.110 Uiso 0.211(18) 1 calc R U P A 2
C79B C 0.863(3) 0.196(3) 0.6158(15) 0.091(2) Uani 0.211(18) 1 d D U P A 2
H79B H 0.8977 0.1591 0.6621 0.109 Uiso 0.211(18) 1 calc R U P A 2
C78B C 0.803(3) 0.289(3) 0.6020(17) 0.089(2) Uani 0.211(18) 1 d D U P A 2
H78B H 0.7971 0.3154 0.6387 0.107 Uiso 0.211(18) 1 calc R U P A 2
C76B C 0.762(2) 0.305(2) 0.4806(15) 0.090(2) Uani 0.211(18) 1 d D U P A 2
H76B H 0.7270 0.3420 0.4342 0.108 Uiso 0.211(18) 1 calc R U P A 2
C77B C 0.752(2) 0.344(2) 0.5340(19) 0.089(2) Uani 0.211(18) 1 d D U P A 2
H77B H 0.7112 0.4073 0.5241 0.106 Uiso 0.211(18) 1 calc R U P A 2
C75B C 0.822(3) 0.212(2) 0.4949(18) 0.092(2) Uani 0.211(18) 1 d D U P A 2
H75B H 0.8280 0.1857 0.4583 0.110 Uiso 0.211(18) 1 calc R U P A 2
C64A C 1.2168(19) 0.5176(17) 0.2895(12) 0.076(4) Uani 0.42(2) 1 d D U P B 1
H64A H 1.2920 0.4928 0.3040 0.114 Uiso 0.42(2) 1 calc R U P B 1
H64B H 1.1881 0.5844 0.2795 0.114 Uiso 0.42(2) 1 calc R U P B 1
H64C H 1.2098 0.5059 0.2451 0.114 Uiso 0.42(2) 1 calc R U P B 1
C66A C 1.2069(17) 0.3656(10) 0.3681(18) 0.093(4) Uani 0.42(2) 1 d D U P B 1
H66A H 1.2834 0.3452 0.3768 0.140 Uiso 0.42(2) 1 calc R U P B 1
H66B H 1.1944 0.3506 0.3268 0.140 Uiso 0.42(2) 1 calc R U P B 1
H66C H 1.1747 0.3340 0.4122 0.140 Uiso 0.42(2) 1 calc R U P B 1
C65A C 1.1693(19) 0.4891(18) 0.4211(9) 0.077(4) Uani 0.42(2) 1 d D U P B 1
H65A H 1.2449 0.4708 0.4317 0.115 Uiso 0.42(2) 1 calc R U P B 1
H65B H 1.1374 0.4528 0.4624 0.115 Uiso 0.42(2) 1 calc R U P B 1
H65C H 1.1335 0.5551 0.4134 0.115 Uiso 0.42(2) 1 calc R U P B 1
C66B C 1.2132(11) 0.3866(11) 0.3256(12) 0.090(4) Uani 0.58(2) 1 d D U P B 2
H66D H 1.2900 0.3657 0.3335 0.135 Uiso 0.58(2) 1 calc R U P B 2
H66E H 1.1978 0.4043 0.2735 0.135 Uiso 0.58(2) 1 calc R U P B 2
H66F H 1.1876 0.3363 0.3544 0.135 Uiso 0.58(2) 1 calc R U P B 2
C64B C 1.1952(14) 0.5470(12) 0.2947(9) 0.079(4) Uani 0.58(2) 1 d D U P B 2
H64D H 1.2716 0.5294 0.3022 0.118 Uiso 0.58(2) 1 calc R U P B 2
H64E H 1.1572 0.6060 0.3022 0.118 Uiso 0.58(2) 1 calc R U P B 2
H64F H 1.1813 0.5536 0.2447 0.118 Uiso 0.58(2) 1 calc R U P B 2
C65B C 1.1894(14) 0.4486(14) 0.4275(7) 0.083(4) Uani 0.58(2) 1 d D U P B 2
H65D H 1.2667 0.4302 0.4306 0.125 Uiso 0.58(2) 1 calc R U P B 2
H65E H 1.1677 0.3976 0.4606 0.125 Uiso 0.58(2) 1 calc R U P B 2
H65F H 1.1553 0.5032 0.4418 0.125 Uiso 0.58(2) 1 calc R U P B 2
loop_
_atom_site_aniso_label
_atom_site_aniso_U_11
_atom_site_aniso_U_22
_atom_site_aniso_U_33
_atom_site_aniso_U_23
_atom_site_aniso_U_13
_atom_site_aniso_U_12
B1 0.036(2) 0.037(2) 0.039(2) -0.0066(19) 0.000(2) -0.014(2)
B2 0.035(3) 0.044(3) 0.053(3) -0.010(2) 0.005(2) -0.018(2)
B3 0.026(2) 0.038(2) 0.036(2) -0.0119(19) 0.0039(18) -0.0141(18)
B4 0.042(3) 0.029(2) 0.039(2) -0.0086(19) 0.003(2) -0.0118(19)
C1 0.035(2) 0.036(2) 0.032(2) -0.0079(17) 0.0004(18) -0.0140(17)
C2 0.039(2) 0.039(2) 0.047(3) -0.007(2) -0.005(2) -0.0172(19)
C3 0.048(3) 0.037(2) 0.050(3) -0.006(2) -0.005(2) -0.024(2)
C4 0.038(2) 0.042(2) 0.048(3) -0.004(2) -0.002(2) -0.0209(19)
C5 0.035(2) 0.039(2) 0.040(2) -0.0090(18) 0.0024(19) -0.0185(17)
C6 0.032(2) 0.046(2) 0.048(2) -0.016(2) 0.0083(19) -0.0154(19)
C7 0.044(3) 0.042(2) 0.043(2) -0.009(2) 0.011(2) -0.021(2)
C8 0.046(3) 0.037(2) 0.042(2) -0.0072(19) 0.006(2) -0.0172(19)
C9 0.047(3) 0.061(3) 0.052(3) -0.017(2) -0.004(2) -0.027(2)
C10 0.057(3) 0.073(3) 0.051(3) -0.024(3) 0.003(2) -0.037(3)
C11 0.053(3) 0.067(3) 0.052(3) -0.026(2) 0.009(2) -0.028(2)
C12 0.033(2) 0.038(2) 0.049(2) -0.0065(19) 0.0040(19) -0.0180(18)
C13 0.057(3) 0.039(3) 0.058(3) -0.012(2) -0.004(2) -0.008(2)
C14 0.071(4) 0.040(3) 0.074(4) -0.018(3) 0.010(3) -0.008(2)
C15 0.050(3) 0.050(3) 0.092(4) -0.013(3) 0.006(3) -0.013(2)
C16 0.046(3) 0.041(3) 0.091(4) -0.004(3) -0.015(3) -0.011(2)
C17 0.048(3) 0.045(3) 0.060(3) -0.006(2) -0.010(2) -0.016(2)
C18 0.048(3) 0.051(3) 0.048(3) -0.005(2) -0.003(2) -0.021(2)
C19 0.063(3) 0.058(3) 0.059(3) 0.003(3) -0.020(3) -0.028(3)
C20 0.048(3) 0.050(3) 0.064(3) -0.006(2) -0.015(2) -0.020(2)
C21 0.050(3) 0.054(3) 0.055(3) -0.020(2) 0.010(2) -0.021(2)
C22 0.049(3) 0.066(3) 0.067(3) -0.026(3) 0.017(3) -0.023(3)
C23 0.042(3) 0.061(3) 0.075(4) -0.027(3) 0.021(3) -0.023(2)
C24 0.034(2) 0.047(3) 0.068(3) -0.002(2) -0.006(2) -0.018(2)
C25 0.060(4) 0.068(4) 0.081(4) -0.010(3) -0.008(3) -0.036(3)
C26 0.077(4) 0.082(5) 0.110(5) -0.004(4) -0.029(4) -0.050(4)
C27 0.063(4) 0.084(5) 0.123(5) 0.000(4) -0.019(4) -0.047(4)
C28 0.054(4) 0.083(5) 0.113(5) -0.001(4) 0.003(4) -0.042(3)
C29 0.048(3) 0.065(4) 0.080(4) -0.009(3) 0.012(3) -0.033(3)
C30 0.032(2) 0.034(2) 0.038(2) -0.0097(17) 0.0060(18) -0.0125(17)
C31 0.043(2) 0.037(2) 0.038(2) -0.0072(18) -0.0001(19) -0.0175(19)
C32 0.042(3) 0.041(2) 0.043(2) -0.0115(19) -0.001(2) -0.020(2)
C33 0.033(2) 0.039(2) 0.038(2) -0.0064(18) 0.0003(19) -0.0153(18)
C34 0.0243(19) 0.036(2) 0.0310(19) -0.0085(16) 0.0029(16) -0.0093(16)
C35 0.039(2) 0.044(2) 0.043(2) -0.0169(19) 0.003(2) -0.0151(19)
C36 0.047(3) 0.040(2) 0.052(3) -0.016(2) -0.002(2) -0.006(2)
C37 0.039(2) 0.035(2) 0.050(3) -0.0101(19) -0.001(2) -0.0107(18)
C38 0.030(2) 0.043(2) 0.046(2) -0.014(2) 0.0039(19) -0.0157(18)
C39 0.039(2) 0.042(2) 0.048(2) -0.008(2) 0.006(2) -0.022(2)
C40 0.038(2) 0.043(2) 0.040(2) -0.0085(19) 0.0046(19) -0.0213(19)
C41 0.033(2) 0.028(2) 0.038(2) -0.0037(16) 0.0013(17) -0.0144(16)
C42 0.034(2) 0.045(3) 0.040(2) -0.013(2) 0.0005(19) -0.0097(19)
C43 0.036(2) 0.044(3) 0.054(3) -0.010(2) -0.007(2) -0.010(2)
C44 0.051(3) 0.049(3) 0.043(2) -0.002(2) -0.008(2) -0.028(2)
C45 0.046(3) 0.049(3) 0.040(2) -0.011(2) 0.002(2) -0.026(2)
C46 0.036(2) 0.044(2) 0.042(2) -0.0121(19) 0.0029(19) -0.0177(19)
C47 0.045(3) 0.042(2) 0.038(2) -0.0090(19) 0.001(2) -0.016(2)
C48 0.057(3) 0.056(3) 0.032(2) -0.012(2) 0.006(2) -0.026(2)
C49 0.055(3) 0.043(2) 0.034(2) -0.0037(18) -0.006(2) -0.021(2)
C50 0.035(2) 0.048(3) 0.047(3) -0.010(2) 0.000(2) -0.0146(19)
C51 0.038(3) 0.044(3) 0.065(3) -0.015(2) -0.004(2) -0.006(2)
C52 0.044(3) 0.037(2) 0.056(3) -0.010(2) -0.009(2) -0.0053(19)
C53 0.050(3) 0.034(2) 0.040(2) -0.0037(18) -0.006(2) -0.0157(19)
C54 0.061(3) 0.039(2) 0.047(3) -0.010(2) -0.009(2) -0.015(2)
C55 0.083(4) 0.041(3) 0.053(3) -0.012(2) -0.011(3) -0.018(3)
C56 0.095(4) 0.043(3) 0.055(3) -0.005(2) -0.015(3) -0.035(3)
C57 0.082(4) 0.055(3) 0.050(3) -0.008(2) 0.000(3) -0.038(3)
C58 0.064(3) 0.041(2) 0.045(3) -0.007(2) -0.001(2) -0.029(2)
C59 0.036(2) 0.045(2) 0.042(2) -0.0137(19) -0.0027(18) -0.0144(19)
C60 0.041(3) 0.079(4) 0.048(3) 0.004(3) 0.000(2) -0.018(3)
C62 0.038(2) 0.054(3) 0.052(3) -0.018(2) 0.006(2) -0.018(2)
C63 0.034(3) 0.081(4) 0.080(3) -0.025(3) 0.000(2) -0.017(2)
C67 0.044(3) 0.090(4) 0.049(3) -0.006(3) 0.006(2) -0.021(3)
C68 0.044(3) 0.090(4) 0.043(3) -0.010(3) 0.002(2) -0.015(3)
Fe1 0.0316(4) 0.0376(4) 0.0425(4) -0.0113(3) 0.0053(3) -0.0149(3)
Fe2 0.0287(3) 0.0313(3) 0.0328(3) -0.0070(3) 0.0002(3) -0.0111(3)
N1 0.0348(18) 0.0337(18) 0.0376(19) -0.0028(15) -0.0003(16) -0.0169(14)
N2 0.0332(18) 0.0309(18) 0.0428(19) -0.0071(15) 0.0058(16) -0.0097(14)
N3 0.0323(18) 0.0347(18) 0.0410(19) -0.0106(15) 0.0019(15) -0.0139(14)
N4 0.039(2) 0.050(2) 0.045(2) -0.0194(17) 0.0091(17) -0.0204(17)
N5 0.037(2) 0.050(2) 0.0402(19) -0.0119(17) -0.0004(16) -0.0240(17)
N6 0.041(2) 0.037(2) 0.051(2) -0.0083(17) 0.0011(17) -0.0179(16)
N7 0.0313(19) 0.044(2) 0.053(2) -0.0103(17) -0.0004(17) -0.0168(16)
N8 0.037(2) 0.041(2) 0.049(2) -0.0129(17) 0.0122(17) -0.0175(16)
N9 0.037(2) 0.048(2) 0.053(2) -0.0153(18) 0.0110(18) -0.0191(17)
N10 0.0295(19) 0.0379(19) 0.049(2) -0.0164(16) 0.0059(17) -0.0143(15)
N11 0.0273(17) 0.0328(17) 0.0323(17) -0.0087(14) 0.0024(14) -0.0110(13)
N12 0.0312(18) 0.0329(18) 0.0369(18) -0.0129(14) 0.0033(15) -0.0095(14)
N13 0.0294(18) 0.0325(17) 0.0364(17) -0.0055(14) -0.0016(15) -0.0105(14)
N14 0.0265(17) 0.0401(19) 0.0371(18) -0.0103(15) 0.0028(14) -0.0119(14)
N15 0.0286(17) 0.0387(19) 0.0320(17) -0.0090(15) 0.0019(14) -0.0146(14)
N16 0.040(2) 0.0301(17) 0.0364(17) -0.0088(14) 0.0027(16) -0.0143(15)
N17 0.043(2) 0.0320(18) 0.0316(17) -0.0032(14) -0.0005(16) -0.0153(15)
N18 0.0324(18) 0.0336(18) 0.0373(19) -0.0071(15) -0.0021(15) -0.0091(14)
N19 0.0388(19) 0.0320(18) 0.0376(19) -0.0065(15) -0.0036(16) -0.0095(15)
O1 0.0415(18) 0.054(2) 0.0444(17) -0.0153(15) 0.0084(15) -0.0186(15)
O2 0.0447(18) 0.0421(17) 0.0491(18) -0.0126(15) -0.0037(15) -0.0178(14)
S1 0.0328(6) 0.0419(6) 0.0438(6) -0.0133(5) 0.0019(5) -0.0152(5)
C61 0.040(3) 0.088(4) 0.048(3) 0.000(3) -0.004(2) -0.021(3)
C80A 0.073(3) 0.125(4) 0.088(3) -0.038(3) 0.003(3) -0.041(3)
C75A 0.073(3) 0.124(4) 0.087(3) -0.037(3) 0.006(3) -0.041(3)
C76A 0.071(3) 0.123(4) 0.085(3) -0.037(3) 0.007(3) -0.043(3)
C79A 0.068(3) 0.123(5) 0.086(3) -0.037(3) 0.004(3) -0.045(3)
C77A 0.068(3) 0.119(4) 0.085(3) -0.038(3) 0.005(3) -0.047(3)
C78A 0.066(3) 0.121(5) 0.085(3) -0.038(3) 0.006(3) -0.048(3)
C80B 0.072(3) 0.124(5) 0.087(4) -0.037(3) 0.003(3) -0.043(3)
C79B 0.071(4) 0.123(5) 0.087(4) -0.038(4) 0.004(3) -0.044(3)
C78B 0.069(3) 0.122(5) 0.086(3) -0.038(3) 0.004(3) -0.045(3)
C76B 0.071(3) 0.122(5) 0.086(3) -0.037(3) 0.006(3) -0.044(3)
C77B 0.069(3) 0.122(4) 0.086(3) -0.037(3) 0.005(3) -0.046(3)
C75B 0.072(4) 0.124(5) 0.087(3) -0.037(3) 0.005(3) -0.043(3)
C64A 0.053(6) 0.096(8) 0.087(6) -0.034(5) 0.007(5) -0.035(6)
C66A 0.068(6) 0.089(5) 0.105(8) -0.027(5) 0.004(6) -0.016(4)
C65A 0.060(7) 0.090(8) 0.077(5) -0.017(5) -0.010(4) -0.031(6)
C66B 0.062(5) 0.093(5) 0.098(7) -0.034(5) 0.004(5) -0.009(4)
C64B 0.053(6) 0.102(7) 0.087(5) -0.030(5) 0.006(4) -0.039(5)
C65B 0.065(6) 0.097(8) 0.083(5) -0.016(5) -0.011(4) -0.034(6)
loop_
_atom_type_symbol
_atom_type_description
_atom_type_scat_dispersion_real
_atom_type_scat_dispersion_imag
_atom_type_scat_source
C C 0.0181 0.0091 'International Tables Vol C Tables 4.2.6.8 and 6.1.1.4'
H H 0.0000 0.0000 'International Tables Vol C Tables 4.2.6.8 and 6.1.1.4'
N N 0.0311 0.0180 'International Tables Vol C Tables 4.2.6.8 and 6.1.1.4'
O O 0.0492 0.0322 'International Tables Vol C Tables 4.2.6.8 and 6.1.1.4'
B B 0.0090 0.0039 'International Tables Vol C Tables 4.2.6.8 and 6.1.1.4'
S S 0.3331 0.5567 'International Tables Vol C Tables 4.2.6.8 and 6.1.1.4'
Fe Fe -1.1336 3.1974 'International Tables Vol C Tables 4.2.6.8 and 6.1.1.4'
loop_
_geom_angle_atom_site_label_1
_geom_angle_atom_site_label_2
_geom_angle_atom_site_label_3
_geom_angle
N5 B1 N3 104.3(4)
N5 B1 C12 117.9(4)
N3 B1 C12 107.5(4)
N5 B1 C1 106.1(4)
N3 B1 C1 110.4(4)
C12 B1 C1 110.4(4)
N7 B2 N9 102.9(4)
N7 B2 C24 110.9(4)
N9 B2 C24 113.5(4)
N7 B2 C5 111.0(4)
N9 B2 C5 108.0(4)
C24 B2 C5 110.4(4)
N15 B3 N13 102.6(3)
N15 B3 C41 110.6(3)
N13 B3 C41 114.2(4)
N15 B3 C34 108.4(3)
N13 B3 C34 109.9(3)
C41 B3 C34 110.7(4)
N19 B4 N17 103.6(4)
N19 B4 C53 112.8(4)
N17 B4 C53 113.8(4)
N19 B4 C30 109.2(4)
N17 B4 C30 107.9(4)
C53 B4 C30 109.3(4)
N1 C1 C2 118.5(4)
N1 C1 B1 120.3(4)
C2 C1 B1 121.0(4)
C3 C2 C1 121.0(5)
C3 C2 H2 119.5
C1 C2 H2 119.5
C4 C3 C2 118.9(4)
C4 C3 H3 120.5
C2 C3 H3 120.5
C3 C4 C5 120.7(4)
C3 C4 H4 119.6
C5 C4 H4 119.6
N1 C5 C4 118.9(4)
N1 C5 B2 120.2(4)
C4 C5 B2 120.8(4)
N3 C6 C7 109.5(4)
N3 C6 H6 125.3
C7 C6 H6 125.3
C6 C7 C8 105.5(4)
C6 C7 H7 127.2
C8 C7 H7 127.2
N2 C8 C7 110.0(4)
N2 C8 H8 125.0
C7 C8 H8 125.0
N5 C9 C10 110.3(5)
N5 C9 H9 124.8
C10 C9 H9 124.8
C9 C10 C11 104.4(5)
C9 C10 H10 127.8
C11 C10 H10 127.8
N4 C11 C10 110.0(5)
N4 C11 H11 125.0
C10 C11 H11 125.0
C17 C12 C13 114.1(5)
C17 C12 B1 127.8(5)
C13 C12 B1 117.8(4)
C14 C13 C12 123.5(5)
C14 C13 H13 118.2
C12 C13 H13 118.2
C15 C14 C13 120.1(6)
C15 C14 H14 119.9
C13 C14 H14 119.9
C16 C15 C14 118.8(6)
C16 C15 H15 120.6
C14 C15 H15 120.6
C15 C16 C17 120.7(6)
C15 C16 H16 119.6
C17 C16 H16 119.6
C16 C17 C12 122.4(6)
C16 C17 H17 118.8
C12 C17 H17 118.8
N6 C18 C19 111.1(5)
N6 C18 H18 124.4
C19 C18 H18 124.4
C20 C19 C18 104.6(5)
C20 C19 H19 127.7
C18 C19 H19 127.7
N7 C20 C19 109.7(5)
N7 C20 H20 125.2
C19 C20 H20 125.2
N8 C21 C22 109.5(5)
N8 C21 H21 125.2
C22 C21 H21 125.2
C23 C22 C21 104.7(5)
C23 C22 H22 127.6
C21 C22 H22 127.6
N9 C23 C22 109.0(5)
N9 C23 H23 125.5
C22 C23 H23 125.5
C25 C24 C29 115.0(5)
C25 C24 B2 118.9(5)
C29 C24 B2 125.3(5)
C26 C25 C24 122.5(7)
C26 C25 H25 118.8
C24 C25 H25 118.8
C27 C26 C25 120.5(8)
C27 C26 H26 119.7
C25 C26 H26 119.7
C28 C27 C26 118.9(7)
C28 C27 H27 120.5
C26 C27 H27 120.5
C27 C28 C29 121.3(7)
C27 C28 H28 119.4
C29 C28 H28 119.4
C28 C29 C24 121.7(7)
C28 C29 H29 119.1
C24 C29 H29 119.1
N11 C30 C31 118.0(4)
N11 C30 B4 121.2(4)
C31 C30 B4 120.7(4)
C32 C31 C30 120.3(4)
C32 C31 H31 119.9
C30 C31 H31 119.9
C33 C32 C31 119.4(4)
C33 C32 H32 120.3
C31 C32 H32 120.3
C32 C33 C34 120.4(4)
C32 C33 H33 119.8
C34 C33 H33 119.8
N11 C34 C33 119.0(4)
N11 C34 B3 120.5(4)
C33 C34 B3 120.5(4)
N12 C35 C36 110.5(4)
N12 C35 H35 124.7
C36 C35 H35 124.7
C37 C36 C35 104.7(4)
C37 C36 H36 127.6
C35 C36 H36 127.6
N13 C37 C36 109.4(4)
N13 C37 H37 125.3
C36 C37 H37 125.3
N14 C38 C39 110.7(4)
N14 C38 H38 124.6
C39 C38 H38 124.6
C38 C39 C40 104.8(4)
C38 C39 H39 127.6
C40 C39 H39 127.6
N15 C40 C39 109.6(4)
N15 C40 H40 125.2
C39 C40 H40 125.2
C46 C41 C42 114.5(4)
C46 C41 B3 120.1(4)
C42 C41 B3 125.0(4)
C43 C42 C41 122.9(4)
C43 C42 H42 118.5
C41 C42 H42 118.5
C44 C43 C42 120.2(5)
C44 C43 H43 119.9
C42 C43 H43 119.9
C43 C44 C45 118.8(5)
C43 C44 H44 120.6
C45 C44 H44 120.6
C44 C45 C46 120.4(5)
C44 C45 H45 119.8
C46 C45 H45 119.8
C45 C46 C41 123.0(4)
C45 C46 H46 118.5
C41 C46 H46 118.5
N16 C47 C48 110.3(4)
N16 C47 H47 124.9
C48 C47 H47 124.9
C49 C48 C47 104.7(4)
C49 C48 H48 127.7
C47 C48 H48 127.7
N17 C49 C48 109.3(4)
N17 C49 H49 125.3
C48 C49 H49 125.3
N18 C50 C51 110.1(4)
N18 C50 H50 124.9
C51 C50 H50 124.9
C52 C51 C50 104.9(5)
C52 C51 H51 127.6
C50 C51 H51 127.6
N19 C52 C51 109.0(4)
N19 C52 H52 125.5
C51 C52 H52 125.5
C54 C53 C58 115.2(5)
C54 C53 B4 121.4(4)
C58 C53 B4 122.5(4)
C55 C54 C53 122.3(5)
C55 C54 H54 118.9
C53 C54 H54 118.9
C56 C55 C54 120.1(6)
C56 C55 H55 120.0
C54 C55 H55 120.0
C55 C56 C57 119.6(5)
C55 C56 H56 120.2
C57 C56 H56 120.2
C58 C57 C56 119.8(6)
C58 C57 H57 120.1
C56 C57 H57 120.1
C57 C58 C53 123.1(5)
C57 C58 H58 118.5
C53 C58 H58 118.5
C68 C59 C60 119.2(5)
C68 C59 S1 119.6(4)
C60 C59 S1 121.1(4)
C59 C60 C61 120.2(5)
C59 C60 H60 119.9
C61 C60 H60 119.9
C67 C62 C61 115.2(5)
C67 C62 C63 122.9(5)
C61 C62 C63 121.9(5)
C64A C63 C62 116.8(11)
C65B C63 C62 115.4(8)
C64A C63 C66A 108.7(12)
C62 C63 C66A 108.2(10)
C65B C63 C64B 111.8(11)
C62 C63 C64B 108.0(8)
C65B C63 C66B 110.2(9)
C62 C63 C66B 107.5(7)
C64B C63 C66B 103.2(9)
C64A C63 C65A 109.2(15)
C62 C63 C65A 106.7(10)
C66A C63 C65A 106.7(12)
C62 C67 C68 123.4(5)
C62 C67 H67 118.3
C68 C67 H67 118.3
C59 C68 C67 120.1(5)
C59 C68 H68 120.0
C67 C68 H68 120.0
N10 Fe1 N2 96.23(15)
N10 Fe1 N4 97.62(16)
N2 Fe1 N4 85.56(15)
N10 Fe1 N6 94.69(16)
N2 Fe1 N6 91.65(16)
N4 Fe1 N6 167.60(15)
N10 Fe1 N1 176.88(15)
N2 Fe1 N1 86.47(14)
N4 Fe1 N1 84.12(15)
N6 Fe1 N1 83.66(14)
N10 Fe1 N8 94.19(15)
N2 Fe1 N8 169.58(15)
N4 Fe1 N8 92.93(15)
N6 Fe1 N8 87.63(16)
N1 Fe1 N8 83.12(14)
O2 Fe2 N12 97.97(14)
O2 Fe2 N16 98.52(14)
N12 Fe2 N16 94.04(14)
O2 Fe2 N14 90.15(14)
N12 Fe2 N14 84.90(14)
N16 Fe2 N14 171.32(15)
O2 Fe2 N11 173.13(14)
N12 Fe2 N11 87.32(14)
N16 Fe2 N11 85.42(14)
N14 Fe2 N11 85.92(14)
O2 Fe2 N18 87.58(14)
N12 Fe2 N18 174.44(15)
N16 Fe2 N18 85.46(14)
N14 Fe2 N18 94.76(14)
N11 Fe2 N18 87.12(14)
C5 N1 C1 121.9(4)
C5 N1 Fe1 119.2(3)
C1 N1 Fe1 118.9(3)
C8 N2 N3 106.8(4)
C8 N2 Fe1 129.3(3)
N3 N2 Fe1 120.2(3)
C6 N3 N2 108.1(4)
C6 N3 B1 131.5(4)
N2 N3 B1 120.1(3)
C11 N4 N5 106.6(4)
C11 N4 Fe1 129.7(4)
N5 N4 Fe1 123.7(3)
C9 N5 N4 108.6(4)
C9 N5 B1 135.0(4)
N4 N5 B1 116.4(4)
C18 N6 N7 105.8(4)
C18 N6 Fe1 130.7(3)
N7 N6 Fe1 120.8(3)
C20 N7 N6 108.8(4)
C20 N7 B2 132.1(4)
N6 N7 B2 118.9(4)
C21 N8 N9 107.4(4)
C21 N8 Fe1 127.8(3)
N9 N8 Fe1 121.0(3)
C23 N9 N8 109.3(4)
C23 N9 B2 132.8(4)
N8 N9 B2 117.6(4)
S1 N10 Fe1 148.6(3)
C34 N11 C30 122.8(4)
C34 N11 Fe2 118.9(3)
C30 N11 Fe2 118.3(3)
C35 N12 N13 107.0(4)
C35 N12 Fe2 128.1(3)
N13 N12 Fe2 121.2(3)
N12 N13 C37 108.3(4)
N12 N13 B3 118.5(3)
C37 N13 B3 131.9(4)
C38 N14 N15 106.8(3)
C38 N14 Fe2 130.1(3)
N15 N14 Fe2 121.6(3)
C40 N15 N14 108.1(3)
C40 N15 B3 133.1(4)
N14 N15 B3 118.0(3)
C47 N16 N17 107.2(4)
C47 N16 Fe2 130.1(3)
N17 N16 Fe2 121.4(3)
C49 N17 N16 108.5(4)
C49 N17 B4 133.0(4)
N16 N17 B4 118.4(3)
C50 N18 N19 107.3(4)
C50 N18 Fe2 129.3(3)
N19 N18 Fe2 121.6(3)
C52 N19 N18 108.6(4)
C52 N19 B4 132.5(4)
N18 N19 B4 118.2(3)
S1 O2 Fe2 151.0(2)
O1 S1 N10 116.4(2)
O1 S1 O2 110.1(2)
N10 S1 O2 112.3(2)
O1 S1 C59 105.5(2)
N10 S1 C59 108.2(2)
O2 S1 C59 103.2(2)
C62 C61 C60 121.8(5)
C62 C61 H61 119.1
C60 C61 H61 119.1
C75A C80A C79A 120.2(8)
C75A C80A H80A 119.9
C79A C80A H80A 119.9
C80A C75A C76A 120.5(8)
C80A C75A H75A 119.8
C76A C75A H75A 119.8
C75A C76A C77A 119.8(7)
C75A C76A H76A 120.1
C77A C76A H76A 120.1
C78A C79A C80A 119.5(7)
C78A C79A H79A 120.3
C80A C79A H79A 120.3
C78A C77A C76A 119.6(6)
C78A C77A H77A 120.2
C76A C77A H77A 120.2
C77A C78A C79A 120.5(6)
C77A C78A H78A 119.8
C79A C78A H78A 119.8
C75B C80B C79B 120(2)
C75B C80B H80B 120.2
C79B C80B H80B 120.2
C78B C79B C80B 120.8(14)
C78B C79B H79B 119.6
C80B C79B H79B 119.6
C79B C78B C77B 119.5(11)
C79B C78B H78B 120.2
C77B C78B H78B 120.2
C75B C76B C77B 120.2(14)
C75B C76B H76B 119.9
C77B C76B H76B 119.9
C76B C77B C78B 119.9(11)
C76B C77B H77B 120.1
C78B C77B H77B 120.1
C80B C75B C76B 120(2)
C80B C75B H75B 119.9
C76B C75B H75B 119.9
C63 C64A H64A 109.5
C63 C64A H64B 109.5
H64A C64A H64B 109.5
C63 C64A H64C 109.5
H64A C64A H64C 109.5
H64B C64A H64C 109.5
C63 C66A H66A 109.5
C63 C66A H66B 109.5
H66A C66A H66B 109.5
C63 C66A H66C 109.5
H66A C66A H66C 109.5
H66B C66A H66C 109.5
C63 C65A H65A 109.5
C63 C65A H65B 109.5
H65A C65A H65B 109.5
C63 C65A H65C 109.5
H65A C65A H65C 109.5
H65B C65A H65C 109.5
C63 C66B H66D 109.5
C63 C66B H66E 109.5
H66D C66B H66E 109.5
C63 C66B H66F 109.5
H66D C66B H66F 109.5
H66E C66B H66F 109.5
C63 C64B H64D 109.5
C63 C64B H64E 109.5
H64D C64B H64E 109.5
C63 C64B H64F 109.5
H64D C64B H64F 109.5
H64E C64B H64F 109.5
C63 C65B H65D 109.5
C63 C65B H65E 109.5
H65D C65B H65E 109.5
C63 C65B H65F 109.5
H65D C65B H65F 109.5
H65E C65B H65F 109.5
loop_
_geom_bond_atom_site_label_1
_geom_bond_atom_site_label_2
_geom_bond_distance
B1 N5 1.576(7)
B1 N3 1.580(6)
B1 C12 1.609(7)
B1 C1 1.633(7)
B2 N7 1.561(7)
B2 N9 1.596(7)
B2 C24 1.614(7)
B2 C5 1.623(7)
B3 N15 1.581(6)
B3 N13 1.583(6)
B3 C41 1.599(7)
B3 C34 1.633(6)
B4 N19 1.579(7)
B4 N17 1.584(6)
B4 C53 1.613(7)
B4 C30 1.633(7)
C1 N1 1.369(6)
C1 C2 1.383(6)
C2 C3 1.382(6)
C2 H2 0.9500
C3 C4 1.378(7)
C3 H3 0.9500
C4 C5 1.381(6)
C4 H4 0.9500
C5 N1 1.369(5)
C6 N3 1.350(6)
C6 C7 1.358(7)
C6 H6 0.9500
C7 C8 1.379(7)
C7 H7 0.9500
C8 N2 1.342(5)
C8 H8 0.9500
C9 N5 1.340(6)
C9 C10 1.354(7)
C9 H9 0.9500
C10 C11 1.403(8)
C10 H10 0.9500
C11 N4 1.340(6)
C11 H11 0.9500
C12 C17 1.400(7)
C12 C13 1.406(7)
C13 C14 1.379(7)
C13 H13 0.9500
C14 C15 1.375(9)
C14 H14 0.9500
C15 C16 1.371(9)
C15 H15 0.9500
C16 C17 1.395(8)
C16 H16 0.9500
C17 H17 0.9500
C18 N6 1.338(6)
C18 C19 1.376(7)
C18 H18 0.9500
C19 C20 1.362(7)
C19 H19 0.9500
C20 N7 1.339(6)
C20 H20 0.9500
C21 N8 1.340(6)
C21 C22 1.392(7)
C21 H21 0.9500
C22 C23 1.382(8)
C22 H22 0.9500
C23 N9 1.332(6)
C23 H23 0.9500
C24 C25 1.395(8)
C24 C29 1.409(8)
C25 C26 1.388(8)
C25 H25 0.9500
C26 C27 1.374(11)
C26 H26 0.9500
C27 C28 1.350(11)
C27 H27 0.9500
C28 C29 1.393(8)
C28 H28 0.9500
C29 H29 0.9500
C30 N11 1.365(5)
C30 C31 1.397(6)
C31 C32 1.384(6)
C31 H31 0.9500
C32 C33 1.377(6)
C32 H32 0.9500
C33 C34 1.383(6)
C33 H33 0.9500
C34 N11 1.353(5)
C35 N12 1.341(6)
C35 C36 1.383(6)
C35 H35 0.9500
C36 C37 1.362(7)
C36 H36 0.9500
C37 N13 1.360(6)
C37 H37 0.9500
C38 N14 1.340(5)
C38 C39 1.368(6)
C38 H38 0.9500
C39 C40 1.371(6)
C39 H39 0.9500
C40 N15 1.345(5)
C40 H40 0.9500
C41 C46 1.400(6)
C41 C42 1.407(6)
C42 C43 1.391(6)
C42 H42 0.9500
C43 C44 1.376(7)
C43 H43 0.9500
C44 C45 1.383(7)
C44 H44 0.9500
C45 C46 1.386(6)
C45 H45 0.9500
C46 H46 0.9500
C47 N16 1.339(6)
C47 C48 1.385(6)
C47 H47 0.9500
C48 C49 1.382(7)
C48 H48 0.9500
C49 N17 1.345(6)
C49 H49 0.9500
C50 N18 1.321(6)
C50 C51 1.386(7)
C50 H50 0.9500
C51 C52 1.365(7)
C51 H51 0.9500
C52 N19 1.341(6)
C52 H52 0.9500
C53 C54 1.399(7)
C53 C58 1.402(7)
C54 C55 1.395(7)
C54 H54 0.9500
C55 C56 1.365(9)
C55 H55 0.9500
C56 C57 1.386(8)
C56 H56 0.9500
C57 C58 1.373(7)
C57 H57 0.9500
C58 H58 0.9500
C59 C68 1.351(7)
C59 C60 1.352(7)
C59 S1 1.786(5)
C60 C61 1.393(7)
C60 H60 0.9500
C62 C67 1.369(7)
C62 C61 1.381(7)
C62 C63 1.525(7)
C63 C64A 1.499(13)
C63 C65B 1.501(11)
C63 C66A 1.545(13)
C63 C64B 1.547(11)
C63 C66B 1.554(11)
C63 C65A 1.564(13)
C67 C68 1.370(8)
C67 H67 0.9500
C68 H68 0.9500
Fe1 N10 1.909(4)
Fe1 N2 2.082(4)
Fe1 N4 2.119(4)
Fe1 N6 2.125(4)
Fe1 N1 2.144(4)
Fe1 N8 2.157(4)
Fe2 O2 1.913(3)
Fe2 N12 2.096(3)
Fe2 N16 2.097(4)
Fe2 N14 2.102(4)
Fe2 N11 2.112(4)
Fe2 N18 2.119(4)
N2 N3 1.371(5)
N4 N5 1.368(5)
N6 N7 1.370(5)
N8 N9 1.355(5)
N10 S1 1.504(4)
N12 N13 1.357(5)
N14 N15 1.365(5)
N16 N17 1.367(5)
N18 N19 1.359(5)
O1 S1 1.460(3)
O2 S1 1.512(3)
C61 H61 0.9500
C80A C75A 1.374(9)
C80A C79A 1.387(9)
C80A H80A 0.9500
C75A C76A 1.383(9)
C75A H75A 0.9500
C76A C77A 1.390(9)
C76A H76A 0.9500
C79A C78A 1.387(9)
C79A H79A 0.9500
C77A C78A 1.383(9)
C77A H77A 0.9500
C78A H78A 0.9500
C80B C75B 1.387(13)
C80B C79B 1.389(13)
C80B H80B 0.9500
C79B C78B 1.388(13)
C79B H79B 0.9500
C78B C77B 1.393(13)
C78B H78B 0.9500
C76B C75B 1.388(13)
C76B C77B 1.392(13)
C76B H76B 0.9500
C77B H77B 0.9500
C75B H75B 0.9500
C64A H64A 0.9800
C64A H64B 0.9800
C64A H64C 0.9800
C66A H66A 0.9800
C66A H66B 0.9800
C66A H66C 0.9800
C65A H65A 0.9800
C65A H65B 0.9800
C65A H65C 0.9800
C66B H66D 0.9800
C66B H66E 0.9800
C66B H66F 0.9800
C64B H64D 0.9800
C64B H64E 0.9800
C64B H64F 0.9800
C65B H65D 0.9800
C65B H65E 0.9800
C65B H65F 0.9800
loop_
_geom_hbond_atom_site_label_D
_geom_hbond_atom_site_label_H
_geom_hbond_atom_site_label_A
_geom_hbond_distance_DH
_geom_hbond_distance_HA
_geom_hbond_distance_DA
_geom_hbond_angle_DHA
_geom_hbond_site_symmetry_A
C48 H48 O1 0.95 2.47 3.391(6) 163.2 2_666
C8 H8 O1 0.95 2.35 3.131(6) 139.4 .
loop_
_geom_torsion_atom_site_label_1
_geom_torsion_atom_site_label_2
_geom_torsion_atom_site_label_3
_geom_torsion_atom_site_label_4
_geom_torsion
N5 B1 C1 N1 -58.6(5)
N3 B1 C1 N1 53.9(5)
C12 B1 C1 N1 172.6(4)
N5 B1 C1 C2 116.0(5)
N3 B1 C1 C2 -131.5(4)
C12 B1 C1 C2 -12.8(6)
N1 C1 C2 C3 -1.5(7)
B1 C1 C2 C3 -176.2(4)
C1 C2 C3 C4 0.2(7)
C2 C3 C4 C5 -0.2(8)
C3 C4 C5 N1 1.6(7)
C3 C4 C5 B2 -176.9(5)
N7 B2 C5 N1 -51.4(6)
N9 B2 C5 N1 60.7(5)
C24 B2 C5 N1 -174.7(4)
N7 B2 C5 C4 127.1(5)
N9 B2 C5 C4 -120.8(5)
C24 B2 C5 C4 3.8(7)
N3 C6 C7 C8 -1.6(6)
C6 C7 C8 N2 1.0(6)
N5 C9 C10 C11 1.3(6)
C9 C10 C11 N4 -0.8(6)
N5 B1 C12 C17 -24.3(7)
N3 B1 C12 C17 -141.8(5)
C1 B1 C12 C17 97.8(6)
N5 B1 C12 C13 162.0(4)
N3 B1 C12 C13 44.6(6)
C1 B1 C12 C13 -75.8(5)
C17 C12 C13 C14 5.2(8)
B1 C12 C13 C14 179.7(5)
C12 C13 C14 C15 -1.5(9)
C13 C14 C15 C16 -3.0(9)
C14 C15 C16 C17 3.4(9)
C15 C16 C17 C12 0.6(9)
C13 C12 C17 C16 -4.7(7)
B1 C12 C17 C16 -178.5(5)
N6 C18 C19 C20 0.5(7)
C18 C19 C20 N7 0.3(7)
N8 C21 C22 C23 0.1(7)
C21 C22 C23 N9 -1.1(7)
N7 B2 C24 C25 -45.9(7)
N9 B2 C24 C25 -161.1(5)
C5 B2 C24 C25 77.5(6)
N7 B2 C24 C29 144.3(5)
N9 B2 C24 C29 29.1(7)
C5 B2 C24 C29 -92.3(6)
C29 C24 C25 C26 -2.3(9)
B2 C24 C25 C26 -173.2(6)
C24 C25 C26 C27 0.0(11)
C25 C26 C27 C28 2.6(12)
C26 C27 C28 C29 -2.7(12)
C27 C28 C29 C24 0.2(11)
C25 C24 C29 C28 2.3(9)
B2 C24 C29 C28 172.4(6)
N19 B4 C30 N11 -57.0(5)
N17 B4 C30 N11 55.0(5)
C53 B4 C30 N11 179.2(4)
N19 B4 C30 C31 126.5(4)
N17 B4 C30 C31 -121.5(4)
C53 B4 C30 C31 2.7(6)
N11 C30 C31 C32 0.3(6)
B4 C30 C31 C32 176.9(4)
C30 C31 C32 C33 0.2(7)
C31 C32 C33 C34 -0.1(7)
C32 C33 C34 N11 -0.4(6)
C32 C33 C34 B3 178.0(4)
N15 B3 C34 N11 54.6(5)
N13 B3 C34 N11 -56.8(5)
C41 B3 C34 N11 176.1(4)
N15 B3 C34 C33 -123.8(4)
N13 B3 C34 C33 124.8(4)
C41 B3 C34 C33 -2.2(5)
N12 C35 C36 C37 -1.7(6)
C35 C36 C37 N13 2.6(6)
N14 C38 C39 C40 1.7(5)
C38 C39 C40 N15 -1.4(5)
N15 B3 C41 C46 45.4(5)
N13 B3 C41 C46 160.5(4)
C34 B3 C41 C46 -74.9(5)
N15 B3 C41 C42 -143.0(4)
N13 B3 C41 C42 -27.9(6)
C34 B3 C41 C42 96.7(5)
C46 C41 C42 C43 -5.1(7)
B3 C41 C42 C43 -177.1(4)
C41 C42 C43 C44 3.6(8)
C42 C43 C44 C45 -0.2(7)
C43 C44 C45 C46 -1.4(7)
C44 C45 C46 C41 -0.4(7)
C42 C41 C46 C45 3.4(6)
B3 C41 C46 C45 175.9(4)
N16 C47 C48 C49 1.8(6)
C47 C48 C49 N17 -2.0(6)
N18 C50 C51 C52 -2.0(6)
C50 C51 C52 N19 2.5(6)
N19 B4 C53 C54 -37.2(6)
N17 B4 C53 C54 -154.8(4)
C30 B4 C53 C54 84.5(6)
N19 B4 C53 C58 154.2(4)
N17 B4 C53 C58 36.5(7)
C30 B4 C53 C58 -84.2(5)
C58 C53 C54 C55 -1.3(7)
B4 C53 C54 C55 -170.8(5)
C53 C54 C55 C56 0.7(9)
C54 C55 C56 C57 0.4(9)
C55 C56 C57 C58 -0.8(9)
C56 C57 C58 C53 0.1(9)
C54 C53 C58 C57 0.9(8)
B4 C53 C58 C57 170.3(5)
C68 C59 C60 C61 3.1(10)
S1 C59 C60 C61 -174.7(5)
C67 C62 C63 C64A 11.8(15)
C61 C62 C63 C64A -166.6(13)
C67 C62 C63 C65B 156.2(10)
C61 C62 C63 C65B -22.1(12)
C67 C62 C63 C66A -111.3(14)
C61 C62 C63 C66A 70.4(14)
C67 C62 C63 C64B 30.2(11)
C61 C62 C63 C64B -148.1(10)
C67 C62 C63 C66B -80.5(11)
C61 C62 C63 C66B 101.2(11)
C67 C62 C63 C65A 134.2(12)
C61 C62 C63 C65A -44.1(12)
C61 C62 C67 C68 0.4(10)
C63 C62 C67 C68 -178.0(6)
C60 C59 C68 C67 -2.8(10)
S1 C59 C68 C67 175.0(5)
C62 C67 C68 C59 1.1(11)
C4 C5 N1 C1 -2.9(7)
B2 C5 N1 C1 175.5(4)
C4 C5 N1 Fe1 176.3(3)
B2 C5 N1 Fe1 -5.2(6)
C2 C1 N1 C5 2.9(6)
B1 C1 N1 C5 177.6(4)
C2 C1 N1 Fe1 -176.4(3)
B1 C1 N1 Fe1 -1.6(5)
C7 C8 N2 N3 0.0(5)
C7 C8 N2 Fe1 -157.9(3)
C7 C6 N3 N2 1.7(5)
C7 C6 N3 B1 174.5(4)
C8 N2 N3 C6 -1.0(5)
Fe1 N2 N3 C6 159.3(3)
C8 N2 N3 B1 -174.8(4)
Fe1 N2 N3 B1 -14.4(5)
N5 B1 N3 C6 -103.3(5)
C12 B1 N3 C6 22.6(7)
C1 B1 N3 C6 143.1(5)
N5 B1 N3 N2 68.7(5)
C12 B1 N3 N2 -165.3(4)
C1 B1 N3 N2 -44.9(5)
C10 C11 N4 N5 0.1(6)
C10 C11 N4 Fe1 -179.9(3)
C10 C9 N5 N4 -1.3(6)
C10 C9 N5 B1 -179.2(5)
C11 N4 N5 C9 0.7(5)
Fe1 N4 N5 C9 -179.3(3)
C11 N4 N5 B1 179.1(4)
Fe1 N4 N5 B1 -1.0(5)
N3 B1 N5 C9 120.1(5)
C12 B1 N5 C9 1.0(7)
C1 B1 N5 C9 -123.3(5)
N3 B1 N5 N4 -57.6(5)
C12 B1 N5 N4 -176.8(4)
C1 B1 N5 N4 59.0(5)
C19 C18 N6 N7 -1.1(6)
C19 C18 N6 Fe1 159.9(4)
C19 C20 N7 N6 -1.0(6)
C19 C20 N7 B2 -176.2(5)
C18 N6 N7 C20 1.3(5)
Fe1 N6 N7 C20 -162.0(3)
C18 N6 N7 B2 177.2(4)
Fe1 N6 N7 B2 13.9(5)
N9 B2 N7 C20 105.6(6)
C24 B2 N7 C20 -16.1(8)
C5 B2 N7 C20 -139.2(5)
N9 B2 N7 N6 -69.3(5)
C24 B2 N7 N6 169.0(4)
C5 B2 N7 N6 46.0(6)
C22 C21 N8 N9 0.9(6)
C22 C21 N8 Fe1 -157.1(4)
C22 C23 N9 N8 1.7(6)
C22 C23 N9 B2 175.4(5)
C21 N8 N9 C23 -1.6(6)
Fe1 N8 N9 C23 158.2(4)
C21 N8 N9 B2 -176.4(4)
Fe1 N8 N9 B2 -16.6(5)
N7 B2 N9 C23 -102.7(6)
C24 B2 N9 C23 17.2(8)
C5 B2 N9 C23 139.9(5)
N7 B2 N9 N8 70.5(5)
C24 B2 N9 N8 -169.6(4)
C5 B2 N9 N8 -46.9(5)
C33 C34 N11 C30 0.9(6)
B3 C34 N11 C30 -177.5(4)
C33 C34 N11 Fe2 -178.3(3)
B3 C34 N11 Fe2 3.3(5)
C31 C30 N11 C34 -0.9(6)
B4 C30 N11 C34 -177.5(4)
C31 C30 N11 Fe2 178.3(3)
B4 C30 N11 Fe2 1.7(5)
C36 C35 N12 N13 0.1(5)
C36 C35 N12 Fe2 158.3(3)
C35 N12 N13 C37 1.5(5)
Fe2 N12 N13 C37 -158.5(3)
C35 N12 N13 B3 169.7(4)
Fe2 N12 N13 B3 9.7(5)
C36 C37 N13 N12 -2.6(5)
C36 C37 N13 B3 -168.6(4)
N15 B3 N13 N12 -66.8(4)
C41 B3 N13 N12 173.5(3)
C34 B3 N13 N12 48.4(5)
N15 B3 N13 C37 98.1(5)
C41 B3 N13 C37 -21.6(6)
C34 B3 N13 C37 -146.7(4)
C39 C38 N14 N15 -1.4(5)
C39 C38 N14 Fe2 -167.2(3)
C39 C40 N15 N14 0.6(5)
C39 C40 N15 B3 169.9(4)
C38 N14 N15 C40 0.5(5)
Fe2 N14 N15 C40 167.8(3)
C38 N14 N15 B3 -170.7(4)
Fe2 N14 N15 B3 -3.4(5)
N13 B3 N15 C40 -105.9(5)
C41 B3 N15 C40 16.2(7)
C34 B3 N15 C40 137.8(5)
N13 B3 N15 N14 62.6(4)
C41 B3 N15 N14 -175.3(3)
C34 B3 N15 N14 -53.7(5)
C48 C47 N16 N17 -0.9(5)
C48 C47 N16 Fe2 -167.7(3)
C48 C49 N17 N16 1.5(6)
C48 C49 N17 B4 176.6(5)
C47 N16 N17 C49 -0.4(5)
Fe2 N16 N17 C49 167.8(3)
C47 N16 N17 B4 -176.3(4)
Fe2 N16 N17 B4 -8.1(5)
N19 B4 N17 C49 -109.4(5)
C53 B4 N17 C49 13.4(7)
C30 B4 N17 C49 134.9(5)
N19 B4 N17 N16 65.3(5)
C53 B4 N17 N16 -171.9(4)
C30 B4 N17 N16 -50.5(5)
C51 C50 N18 N19 0.7(6)
C51 C50 N18 Fe2 165.7(3)
C51 C52 N19 N18 -2.2(6)
C51 C52 N19 B4 -171.8(5)
C50 N18 N19 C52 0.9(5)
Fe2 N18 N19 C52 -165.5(3)
C50 N18 N19 B4 172.2(4)
Fe2 N18 N19 B4 5.9(5)
N17 B4 N19 C52 105.3(5)
C53 B4 N19 C52 -18.2(7)
C30 B4 N19 C52 -139.9(5)
N17 B4 N19 N18 -63.5(5)
C53 B4 N19 N18 173.0(4)
C30 B4 N19 N18 51.3(5)
Fe1 N10 S1 O1 47.6(5)
Fe1 N10 S1 O2 175.8(4)
Fe1 N10 S1 C59 -70.9(5)
Fe2 O2 S1 O1 63.4(5)
Fe2 O2 S1 N10 -68.1(5)
Fe2 O2 S1 C59 175.6(4)
C68 C59 S1 O1 -158.1(5)
C60 C59 S1 O1 19.7(5)
C68 C59 S1 N10 -32.8(5)
C60 C59 S1 N10 145.0(5)
C68 C59 S1 O2 86.4(5)
C60 C59 S1 O2 -95.8(5)
C67 C62 C61 C60 -0.1(9)
C63 C62 C61 C60 178.3(6)
C59 C60 C61 C62 -1.6(10)
C79A C80A C75A C76A 0.2(6)
C80A C75A C76A C77A 0.0(3)
C75A C80A C79A C78A -0.5(8)
C75A C76A C77A C78A 0.1(3)
C76A C77A C78A C79A -0.4(6)
C80A C79A C78A C77A 0.6(7)
C75B C80B C79B C78B -0.1(9)
C80B C79B C78B C77B 0.1(9)
C75B C76B C77B C78B 0.0(3)
C79B C78B C77B C76B 0.0(7)
C79B C80B C75B C76B 0.1(7)
C77B C76B C75B C80B 0.0(3)
loop_
_platon_squeeze_void_nr
_platon_squeeze_void_average_x
_platon_squeeze_void_average_y
_platon_squeeze_void_average_z
_platon_squeeze_void_volume
_platon_squeeze_void_count_electrons
_platon_squeeze_void_content
1 0.000 0.000 0.500 366 96 ' '
2 0.000 0.500 1.000 157 48 ' '
3 0.097 0.762 0.208 7 1 ' '
4 0.903 0.238 0.792 7 0 ' '
