#------------------------------------------------------------------------------
#$Date: 2016-08-05 06:38:56 +0300 (Fri, 05 Aug 2016) $
#$Revision: 184967 $
#$URL: file:///home/coder/svn-repositories/cod/cif/1/54/33/1543390.cif $
#------------------------------------------------------------------------------
#
# This file is available in the Crystallography Open Database (COD),
# http://www.crystallography.net/
#
# All data on this site have been placed in the public domain by the
# contributors.
#
data_1543390
loop_
_publ_author_name
'Guti\'errez-Jim\'enez, Marta I'
'Aydillo, Carlos'
'Navo, Claudio D.'
'Avenoza, Alberto'
'Corzana, Francisco'
'Jim\'enez-Os\'es, Gonzalo'
'Zurbano, Mar\'ia M'
'Busto, Jes\'us H'
'Peregrina, Jes\'us M'
_publ_section_title
;
 Bifunctional Chiral Dehydroalanines for Peptide Coupling and
 Stereoselective S-Michael Addition.
;
_journal_issue                   12
_journal_name_full               'Organic letters'
_journal_page_first              2796
_journal_page_last               2799
_journal_paper_doi               10.1021/acs.orglett.6b00840
_journal_volume                  18
_journal_year                    2016
_chemical_absolute_configuration ad
_chemical_formula_moiety         'C25 H36 Cl4 N2 O13 S'
_chemical_formula_sum            'C25 H36 Cl4 N2 O13 S'
_chemical_formula_weight         746.42
_space_group_IT_number           19
_symmetry_cell_setting           orthorhombic
_symmetry_Int_Tables_number      19
_symmetry_space_group_name_Hall  'P 2ac 2ab'
_symmetry_space_group_name_H-M   'P 21 21 21'
_atom_sites_solution_hydrogens   geom
_audit_conform_dict_location     ftp://ftp.iucr.org/pub/cif_core.dic
_audit_conform_dict_name         cif_core.dic
_audit_conform_dict_version      2.4.3
_audit_creation_date             2016-02-29T17:35:14-00:00
_audit_creation_method           'WinGX routine CIF_UPDATE'
_cell_angle_alpha                90
_cell_angle_beta                 90
_cell_angle_gamma                90
_cell_formula_units_Z            4
_cell_length_a                   10.6272(8)
_cell_length_b                   12.2620(10)
_cell_length_c                   25.592(2)
_cell_measurement_reflns_used    9573
_cell_measurement_temperature    100(2)
_cell_measurement_theta_max      27.43
_cell_measurement_theta_min      2.91
_cell_measurement_wavelength     0.71076
_cell_volume                     3334.9(5)
_computing_cell_refinement       'SAINT V8.34A integration software'
_computing_data_collection       'Bruker APEX2 software'
_computing_data_reduction        'SORTAV (Blessing, 1995)'
_computing_molecular_graphics    'Ortep for Windows (Farrugia, 2012)'
_computing_publication_material  'WinGX publication routines (Farrugia, 2012)'
_computing_structure_refinement  'SHELXL-2014/7 (Sheldrick, 2014)'
_diffrn_ambient_temperature      100(2)
_diffrn_detector                 'APEX-II CCD'
_diffrn_measured_fraction_theta_full 0.997
_diffrn_measured_fraction_theta_max 0.997
_diffrn_measurement_device       '\k-geometry diffractometer'
_diffrn_measurement_device_type  'Bruker APEX-II'
_diffrn_measurement_method       '\f or \w oscillation scans'
_diffrn_orient_matrix_UB_11      -0.011443
_diffrn_orient_matrix_UB_12      -0.072141
_diffrn_orient_matrix_UB_13      0.017593
_diffrn_orient_matrix_UB_21      -0.008209
_diffrn_orient_matrix_UB_22      0.037625
_diffrn_orient_matrix_UB_23      0.0345
_diffrn_orient_matrix_UB_31      -0.093038
_diffrn_orient_matrix_UB_32      0.005553
_diffrn_orient_matrix_UB_33      -0.005208
_diffrn_radiation_monochromator  graphite
_diffrn_radiation_probe          x-ray
_diffrn_radiation_type           MoK\a
_diffrn_radiation_wavelength     0.71073
_diffrn_reflns_av_R_equivalents  0.0889
_diffrn_reflns_av_unetI/netI     0.0286
_diffrn_reflns_Laue_measured_fraction_full 0.997
_diffrn_reflns_Laue_measured_fraction_max 0.997
_diffrn_reflns_limit_h_max       13
_diffrn_reflns_limit_h_min       -12
_diffrn_reflns_limit_k_max       15
_diffrn_reflns_limit_k_min       -15
_diffrn_reflns_limit_l_max       31
_diffrn_reflns_limit_l_min       -31
_diffrn_reflns_number            144723
_diffrn_reflns_point_group_measured_fraction_full 0.998
_diffrn_reflns_point_group_measured_fraction_max 0.998
_diffrn_reflns_theta_full        25.242
_diffrn_reflns_theta_max         26.371
_diffrn_reflns_theta_min         2.909
_diffrn_source                   'sealed x-ray tube'
_diffrn_standards_number         0
_exptl_absorpt_coefficient_mu    0.482
_exptl_absorpt_correction_T_max  0.746
_exptl_absorpt_correction_T_min  0.627
_exptl_absorpt_correction_type   multi-scan
_exptl_absorpt_process_details
;
SADABS-2014/5 - Bruker AXS area detector scaling and absorption correction
;
_exptl_crystal_colour            colourless
_exptl_crystal_density_diffrn    1.487
_exptl_crystal_density_method    'not measured'
_exptl_crystal_description       needle
_exptl_crystal_F_000             1552
_exptl_crystal_size_max          0.269
_exptl_crystal_size_mid          0.058
_exptl_crystal_size_min          0.038
_refine_diff_density_max         0.426
_refine_diff_density_min         -0.506
_refine_diff_density_rms         0.067
_refine_ls_abs_structure_details
;
 Flack x determined using 2474 quotients [(I+)-(I-)]/[(I+)+(I-)]
 (Parsons, Flack and Wagner, Acta Cryst. B69 (2013) 249-259).
;
_refine_ls_abs_structure_Flack   0.031(14)
_refine_ls_extinction_method     none
_refine_ls_goodness_of_fit_ref   1.09
_refine_ls_hydrogen_treatment    constr
_refine_ls_matrix_type           full
_refine_ls_number_constraints    0
_refine_ls_number_parameters     413
_refine_ls_number_reflns         6810
_refine_ls_number_restraints     0
_refine_ls_restrained_S_all      1.09
_refine_ls_R_factor_all          0.05
_refine_ls_R_factor_gt           0.0421
_refine_ls_shift/su_max          0
_refine_ls_shift/su_mean         0
_refine_ls_structure_factor_coef Fsqd
_refine_ls_weighting_details
'w=1/[\s^2^(Fo^2^)+(0.0476P)^2^+3.6615P] where P=(Fo^2^+2Fc^2^)/3'
_refine_ls_weighting_scheme      calc
_refine_ls_wR_factor_gt          0.1019
_refine_ls_wR_factor_ref         0.1057
_reflns_Friedel_coverage         0.78
_reflns_Friedel_fraction_full    1
_reflns_Friedel_fraction_max     1
_reflns_number_gt                6176
_reflns_number_total             6810
_reflns_threshold_expression     'I > 2\s(I)'
_iucr_refine_instructions_details
;
 
    shelx.res created by SHELXL-2014/7
 
TITL 1_a.res in P2(1)2(1)2(1)
CELL  0.71073  10.6272  12.2620  25.5916   90.000   90.000   90.000
ZERR    4.00   0.0008   0.0010   0.0022    0.000    0.000    0.000
LATT  -1
SYMM  1/2 - X, - Y, 1/2 + Z
SYMM  - X, 1/2 + Y, 1/2 - Z
SYMM  1/2 + X, 1/2 - Y, - Z
SFAC  C    H    N    O    S    CL
UNIT  100 144 8 52 4 16
MERG   2
OMIT     0   1   6
OMIT     1   0   3
OMIT     1   2   0
SHEL 0.80 999
FMAP   2
PLAN   20
ACTA
BOND   $H
LIST   4
L.S.  15
TEMP  -173.15
WGHT    0.047600    3.661500
FVAR       0.41565
S001  5    0.379271    0.606494    0.422526    11.00000    0.00977    0.01693 =
         0.01438    0.00384   -0.00135    0.00146
CL02  6    0.506424    0.183698    0.278832    11.00000    0.02798    0.02838 =
         0.03337   -0.00256   -0.00119    0.00675
CL03  6    0.052926    0.406395    0.363987    11.00000    0.03860    0.03757 =
         0.03321    0.00312    0.00446   -0.00013
CL04  6    0.368212    0.384147    0.301113    11.00000    0.04164    0.03583 =
         0.06399   -0.01705   -0.01763    0.01774
CL05  6   -0.183034    0.290196    0.380806    11.00000    0.07539    0.07916 =
         0.05111    0.01165   -0.00048   -0.04722
O006  4    0.806314    0.551163    0.488506    11.00000    0.00915    0.01332 =
         0.01392   -0.00246   -0.00080    0.00164
O007  4    0.631507    0.455982    0.556447    11.00000    0.02127    0.00860 =
         0.01211    0.00102   -0.00216    0.00130
O008  4    0.633933    0.611288    0.413926    11.00000    0.01101    0.01479 =
         0.00932   -0.00020    0.00071   -0.00199
O009  4    0.695078    0.831029    0.401876    11.00000    0.01744    0.01376 =
         0.01662    0.00453   -0.00433   -0.00498
O00A  4    0.075080    0.694554    0.429217    11.00000    0.01951    0.01559 =
         0.01113    0.00075   -0.00158   -0.00188
O00B  4    0.174165    0.792031    0.274402    11.00000    0.02326    0.01545 =
         0.01231    0.00280   -0.00068   -0.00060
O00C  4   -0.088555    0.619298    0.277183    11.00000    0.01465    0.03017 =
         0.01845   -0.00790   -0.00283   -0.00306
O00D  4    0.346588    0.889904    0.293859    11.00000    0.02794    0.01606 =
         0.02355    0.00555    0.00381   -0.00698
O00E  4   -0.046288    0.695267    0.357509    11.00000    0.01411    0.02894 =
         0.01165   -0.00300   -0.00160    0.00321
O00F  4    0.592466    0.574746    0.621335    11.00000    0.03459    0.01405 =
         0.01388   -0.00287    0.00291   -0.00339
O00G  4    0.466645    0.271305    0.427899    11.00000    0.04763    0.01709 =
         0.02564   -0.00759    0.00662   -0.01089
O00H  4    0.793630    0.980705    0.431415    11.00000    0.02618    0.01765 =
         0.03100   -0.00187   -0.00804   -0.00532
N00I  3    0.161638    0.681342    0.346490    11.00000    0.01280    0.01008 =
         0.01236   -0.00048   -0.00197    0.00184
N00J  3    0.435423    0.408934    0.484685    11.00000    0.01249    0.01185 =
         0.01647   -0.00020    0.00178    0.00048
AFIX  43
H00J  2    0.386759    0.435530    0.509417    11.00000   -1.20000
AFIX   0
O00K  4    0.895186    0.578233    0.567321    11.00000    0.02732    0.03848 =
         0.02486   -0.01475   -0.01473    0.01670
C00L  1    0.549161    0.467585    0.471002    11.00000    0.01202    0.00850 =
         0.01260   -0.00024   -0.00150    0.00269
AFIX  13
H00L  2    0.616523    0.412667    0.463791    11.00000   -1.20000
AFIX   0
C00M  1    0.065870    0.691484    0.382393    11.00000    0.01748    0.00943 =
         0.01767    0.00050   -0.00474   -0.00198
C00N  1    0.532356    0.538424    0.421181    11.00000    0.00784    0.01312 =
         0.01381   -0.00144   -0.00251    0.00056
AFIX  13
H00N  2    0.531895    0.487638    0.390608    11.00000   -1.20000
AFIX   0
C00O  1    0.276022    0.745724    0.353647    11.00000    0.01461    0.01262 =
         0.01413   -0.00019    0.00061    0.00019
AFIX  13
H00O  2    0.264460    0.793204    0.385052    11.00000   -1.20000
AFIX   0
C00P  1    0.274556    0.818147    0.305198    11.00000    0.01751    0.01668 =
         0.01417   -0.00322    0.00086    0.00416
C00Q  1    0.654192    0.680938    0.457849    11.00000    0.01120    0.00912 =
         0.01087   -0.00241   -0.00206    0.00141
AFIX  13
H00Q  2    0.572922    0.717414    0.466930    11.00000   -1.20000
AFIX   0
C00R  1    0.749017    0.767067    0.443828    11.00000    0.01189    0.01476 =
         0.01520    0.00299   -0.00128   -0.00463
AFIX  23
H00A  2    0.766780    0.813990    0.474432    11.00000   -1.20000
H00B  2    0.828730    0.732892    0.432311    11.00000   -1.20000
AFIX   0
C00S  1    0.394891    0.679918    0.361033    11.00000    0.01384    0.01481 =
         0.01517    0.00291   -0.00166   -0.00218
AFIX  23
H00C  2    0.469058    0.728716    0.362152    11.00000   -1.20000
H00D  2    0.405758    0.627974    0.331764    11.00000   -1.20000
AFIX   0
C00T  1    0.115115    0.693328    0.293526    11.00000    0.01791    0.01269 =
         0.01379   -0.00054   -0.00195    0.00209
C00U  1    0.722139    0.937696    0.400978    11.00000    0.01228    0.01514 =
         0.01843    0.00067    0.00819    0.00035
C00V  1   -0.029770    0.706952    0.300979    11.00000    0.01738    0.02547 =
         0.00953   -0.00298   -0.00001    0.00252
C00W  1    0.899170    0.539141    0.524385    11.00000    0.01605    0.01436 =
         0.02164    0.00002   -0.00404    0.00114
C00X  1    0.696717    0.612918    0.504307    11.00000    0.01128    0.00875 =
         0.01115   -0.00240   -0.00002    0.00107
AFIX  13
H00X  2    0.717302    0.660984    0.534695    11.00000   -1.20000
AFIX   0
C00Y  1    1.004583    0.472231    0.503116    11.00000    0.01221    0.02207 =
         0.02329   -0.00075   -0.00430    0.00301
AFIX 137
H00E  2    0.973780    0.427628    0.474028    11.00000   -1.50000
H00F  2    1.037514    0.424622    0.530667    11.00000   -1.50000
H00G  2    1.071721    0.520477    0.490676    11.00000   -1.50000
AFIX   0
C00Z  1    0.590350    0.535544    0.518161    11.00000    0.01092    0.01009 =
         0.01045    0.00103    0.00004    0.00450
AFIX  13
H00Z  2    0.517118    0.577644    0.532132    11.00000   -1.20000
AFIX   0
C010  1    0.401209    0.315302    0.461050    11.00000    0.02579    0.01329 =
         0.02004    0.00157   -0.00386   -0.00146
C011  1    0.629066    0.486719    0.606923    11.00000    0.02647    0.01312 =
         0.01306    0.00185   -0.00041   -0.00777
C012  1    0.153891    0.600824    0.257300    11.00000    0.01717    0.01959 =
         0.01558   -0.00468   -0.00146    0.00407
AFIX 137
H01A  2    0.118894    0.613590    0.222404    11.00000   -1.50000
H01B  2    0.121859    0.531574    0.271031    11.00000   -1.50000
H01C  2    0.245891    0.597737    0.255138    11.00000   -1.50000
AFIX   0
C013  1    0.652565    0.994747    0.358301    11.00000    0.02147    0.02000 =
         0.02580    0.00737    0.00017   -0.00198
AFIX 137
H01D  2    0.669510    0.958394    0.324932    11.00000   -1.50000
H01E  2    0.680441    1.070823    0.356363    11.00000   -1.50000
H01F  2    0.562075    0.992475    0.365593    11.00000   -1.50000
AFIX   0
C014  1    0.678714    0.397899    0.641649    11.00000    0.06765    0.01611 =
         0.01958    0.00426   -0.00793   -0.00109
AFIX 137
H01G  2    0.645375    0.327423    0.630052    11.00000   -1.50000
H01H  2    0.652360    0.411595    0.677754    11.00000   -1.50000
H01I  2    0.770814    0.396705    0.639807    11.00000   -1.50000
AFIX   0
C015  1    0.510408    0.312397    0.309536    11.00000    0.02505    0.03343 =
         0.02243   -0.00329   -0.00254    0.00270
AFIX  23
H01S  2    0.526575    0.302486    0.347336    11.00000   -1.20000
H01T  2    0.580458    0.355830    0.294797    11.00000   -1.20000
AFIX   0
C016  1   -0.224138    0.620954    0.280680    11.00000    0.01455    0.04576 =
         0.02714   -0.00588   -0.00271    0.00091
AFIX 137
H01J  2   -0.256954    0.682642    0.260504    11.00000   -1.50000
H01K  2   -0.249331    0.628594    0.317335    11.00000   -1.50000
H01L  2   -0.258158    0.552751    0.266576    11.00000   -1.50000
AFIX   0
C017  1    0.274838    0.271742    0.478323    11.00000    0.03024    0.01889 =
         0.04180    0.00071   -0.00345   -0.01000
AFIX 137
H01M  2    0.210328    0.293097    0.452944    11.00000   -1.50000
H01N  2    0.253659    0.301865    0.512685    11.00000   -1.50000
H01O  2    0.278587    0.192021    0.480541    11.00000   -1.50000
AFIX   0
C018  1   -0.080674    0.817910    0.285279    11.00000    0.02499    0.02695 =
         0.02288   -0.00080   -0.00495    0.01036
AFIX 137
H01P  2   -0.078655    0.824828    0.247138    11.00000   -1.50000
H01Q  2   -0.028661    0.875225    0.300956    11.00000   -1.50000
H01R  2   -0.167561    0.825298    0.297609    11.00000   -1.50000
AFIX   0
C019  1   -0.112530    0.410524    0.358243    11.00000    0.03877    0.04298 =
         0.05138    0.00890    0.00088   -0.00543
AFIX  23
H01U  2   -0.145319    0.473102    0.378543    11.00000   -1.20000
H01V  2   -0.135465    0.421885    0.321146    11.00000   -1.20000
AFIX   0
HKLF    4
 
REM  1_a.res in P2(1)2(1)2(1)
REM R1 =  0.0421 for    6176 Fo > 4sig(Fo)  and  0.0500 for all    6810 data
REM    413 parameters refined using      0 restraints
 
END
 
WGHT      0.0478      3.6403
 
REM Highest difference peak  0.426,  deepest hole -0.506,  1-sigma level  0.067
Q1    1  -0.0646  0.5610  0.2936  11.00000  0.05    0.43
Q2    1   0.4634  0.5707  0.4220  11.00000  0.05    0.31
Q3    1   0.4328  0.1892  0.2592  11.00000  0.05    0.30
Q4    1   0.1402  0.6720  0.3188  11.00000  0.05    0.30
Q5    1  -0.2146  0.5410  0.2978  11.00000  0.05    0.29
Q6    1   0.6837  0.6447  0.4791  11.00000  0.05    0.29
Q7    1   0.5617  0.3941  0.2704  11.00000  0.05    0.28
Q8    1   0.1142  0.8611  0.2779  11.00000  0.05    0.27
Q9    1   0.7523  0.5798  0.5022  11.00000  0.05    0.26
Q10   1  -0.1522  0.7842  0.2823  11.00000  0.05    0.25
Q11   1   0.9393  0.5985  0.5462  11.00000  0.05    0.24
Q12   1   0.4374  0.3527  0.4791  11.00000  0.05    0.24
Q13   1   0.6475  0.5805  0.5165  11.00000  0.05    0.24
Q14   1  -0.2664  0.7004  0.3577  11.00000  0.05    0.23
Q15   1   0.2915  0.7625  0.3299  11.00000  0.05    0.23
Q16   1  -0.1115  0.2305  0.3831  11.00000  0.05    0.23
Q17   1   0.5242  0.5130  0.4502  11.00000  0.05    0.22
Q18   1   0.8402  0.5342  0.6076  11.00000  0.05    0.22
Q19   1   0.1211  0.6496  0.2780  11.00000  0.05    0.22
Q20   1   0.3298  0.7176  0.3631  11.00000  0.05    0.22
;
_cod_data_source_file            ol6b00840_si_002.cif
_cod_data_source_block           shelx
_cod_depositor_comments
'Adding full bibliography for 1543389--1543390.cif.'
_cod_database_code               1543390
loop_
_symmetry_equiv_pos_as_xyz
'x, y, z'
'-x+1/2, -y, z+1/2'
'-x, y+1/2, -z+1/2'
'x+1/2, -y+1/2, -z'
loop_
_atom_site_label
_atom_site_type_symbol
_atom_site_fract_x
_atom_site_fract_y
_atom_site_fract_z
_atom_site_U_iso_or_equiv
_atom_site_adp_type
_atom_site_occupancy
_atom_site_site_symmetry_order
_atom_site_calc_flag
_atom_site_refinement_flags_posn
_atom_site_refinement_flags_adp
S001 S 0.37927(9) 0.60649(8) 0.42253(4) 0.0137(2) Uani 1 1 d . .
Cl02 Cl 0.50642(12) 0.18370(10) 0.27883(5) 0.0299(3) Uani 1 1 d . .
Cl03 Cl 0.05293(13) 0.40640(11) 0.36399(5) 0.0365(3) Uani 1 1 d . .
Cl04 Cl 0.36821(14) 0.38415(12) 0.30111(6) 0.0472(4) Uani 1 1 d . .
Cl05 Cl -0.18303(19) 0.29020(17) 0.38081(7) 0.0686(6) Uani 1 1 d . .
O006 O 0.8063(2) 0.5512(2) 0.48851(11) 0.0121(6) Uani 1 1 d . .
O007 O 0.6315(3) 0.4560(2) 0.55645(10) 0.0140(6) Uani 1 1 d . .
O008 O 0.6339(2) 0.6113(2) 0.41393(10) 0.0117(5) Uani 1 1 d . .
O009 O 0.6951(3) 0.8310(2) 0.40188(11) 0.0159(6) Uani 1 1 d . .
O00A O 0.0751(3) 0.6946(2) 0.42922(10) 0.0154(6) Uani 1 1 d . .
O00B O 0.1742(3) 0.7920(2) 0.27440(11) 0.0170(6) Uani 1 1 d . .
O00C O -0.0886(3) 0.6193(3) 0.27718(12) 0.0211(7) Uani 1 1 d . .
O00D O 0.3466(3) 0.8899(2) 0.29386(12) 0.0225(7) Uani 1 1 d . .
O00E O -0.0463(3) 0.6953(3) 0.35751(11) 0.0182(6) Uani 1 1 d . .
O00F O 0.5925(3) 0.5747(2) 0.62134(11) 0.0208(7) Uani 1 1 d . .
O00G O 0.4666(4) 0.2713(3) 0.42790(13) 0.0301(8) Uani 1 1 d . .
O00H O 0.7936(3) 0.9807(2) 0.43141(13) 0.0249(7) Uani 1 1 d . .
N00I N 0.1616(3) 0.6813(3) 0.34649(12) 0.0117(7) Uani 1 1 d . .
N00J N 0.4354(3) 0.4089(3) 0.48469(13) 0.0136(7) Uani 1 1 d . .
H00J H 0.3868 0.4355 0.5094 0.016 Uiso 1 1 calc R U
O00K O 0.8952(3) 0.5782(3) 0.56732(13) 0.0302(8) Uani 1 1 d . .
C00L C 0.5492(4) 0.4676(3) 0.47100(15) 0.0110(7) Uani 1 1 d . .
H00L H 0.6165 0.4127 0.4638 0.013 Uiso 1 1 calc R U
C00M C 0.0659(4) 0.6915(3) 0.38239(16) 0.0149(8) Uani 1 1 d . .
C00N C 0.5324(3) 0.5384(3) 0.42118(15) 0.0116(8) Uani 1 1 d . .
H00N H 0.5319 0.4876 0.3906 0.014 Uiso 1 1 calc R U
C00O C 0.2760(4) 0.7457(3) 0.35365(16) 0.0138(8) Uani 1 1 d . .
H00O H 0.2645 0.7932 0.3851 0.017 Uiso 1 1 calc R U
C00P C 0.2746(4) 0.8181(3) 0.30520(16) 0.0161(8) Uani 1 1 d . .
C00Q C 0.6542(4) 0.6809(3) 0.45785(14) 0.0104(7) Uani 1 1 d . .
H00Q H 0.5729 0.7174 0.4669 0.012 Uiso 1 1 calc R U
C00R C 0.7490(4) 0.7671(3) 0.44383(16) 0.0139(8) Uani 1 1 d . .
H00A H 0.7668 0.814 0.4744 0.017 Uiso 1 1 calc R U
H00B H 0.8287 0.7329 0.4323 0.017 Uiso 1 1 calc R U
C00S C 0.3949(4) 0.6799(3) 0.36103(15) 0.0146(8) Uani 1 1 d . .
H00C H 0.4691 0.7287 0.3622 0.018 Uiso 1 1 calc R U
H00D H 0.4058 0.628 0.3318 0.018 Uiso 1 1 calc R U
C00T C 0.1151(4) 0.6933(3) 0.29353(15) 0.0148(8) Uani 1 1 d . .
C00U C 0.7221(4) 0.9377(3) 0.40098(17) 0.0153(9) Uani 1 1 d . .
C00V C -0.0298(4) 0.7070(4) 0.30098(16) 0.0175(9) Uani 1 1 d . .
C00W C 0.8992(4) 0.5391(3) 0.52439(17) 0.0173(9) Uani 1 1 d . .
C00X C 0.6967(3) 0.6129(3) 0.50431(15) 0.0104(7) Uani 1 1 d . .
H00X H 0.7173 0.661 0.5347 0.012 Uiso 1 1 calc R U
C00Y C 1.0046(4) 0.4722(4) 0.50312(17) 0.0192(9) Uani 1 1 d . .
H00E H 0.9738 0.4276 0.474 0.029 Uiso 1 1 calc R U
H00F H 1.0375 0.4246 0.5307 0.029 Uiso 1 1 calc R U
H00G H 1.0717 0.5205 0.4907 0.029 Uiso 1 1 calc R U
C00Z C 0.5903(4) 0.5355(3) 0.51816(15) 0.0105(8) Uani 1 1 d . .
H00Z H 0.5171 0.5776 0.5321 0.013 Uiso 1 1 calc R U
C010 C 0.4012(4) 0.3153(3) 0.46105(16) 0.0197(9) Uani 1 1 d . .
C011 C 0.6291(4) 0.4867(3) 0.60692(15) 0.0175(9) Uani 1 1 d . .
C012 C 0.1539(4) 0.6008(4) 0.25730(16) 0.0174(8) Uani 1 1 d . .
H01A H 0.1189 0.6136 0.2224 0.026 Uiso 1 1 calc R U
H01B H 0.1219 0.5316 0.271 0.026 Uiso 1 1 calc R U
H01C H 0.2459 0.5977 0.2551 0.026 Uiso 1 1 calc R U
C013 C 0.6526(4) 0.9947(4) 0.35830(18) 0.0224(10) Uani 1 1 d . .
H01D H 0.6695 0.9584 0.3249 0.034 Uiso 1 1 calc R U
H01E H 0.6804 1.0708 0.3564 0.034 Uiso 1 1 calc R U
H01F H 0.5621 0.9925 0.3656 0.034 Uiso 1 1 calc R U
C014 C 0.6787(6) 0.3979(4) 0.64165(19) 0.0344(13) Uani 1 1 d . .
H01G H 0.6454 0.3274 0.6301 0.052 Uiso 1 1 calc R U
H01H H 0.6524 0.4116 0.6778 0.052 Uiso 1 1 calc R U
H01I H 0.7708 0.3967 0.6398 0.052 Uiso 1 1 calc R U
C015 C 0.5104(5) 0.3124(4) 0.30954(18) 0.0270(10) Uani 1 1 d . .
H01S H 0.5266 0.3025 0.3473 0.032 Uiso 1 1 calc R U
H01T H 0.5805 0.3558 0.2948 0.032 Uiso 1 1 calc R U
C016 C -0.2241(4) 0.6210(5) 0.2807(2) 0.0292(11) Uani 1 1 d . .
H01J H -0.257 0.6826 0.2605 0.044 Uiso 1 1 calc R U
H01K H -0.2493 0.6286 0.3173 0.044 Uiso 1 1 calc R U
H01L H -0.2582 0.5528 0.2666 0.044 Uiso 1 1 calc R U
C017 C 0.2748(5) 0.2717(4) 0.4783(2) 0.0303(11) Uani 1 1 d . .
H01M H 0.2103 0.2931 0.4529 0.045 Uiso 1 1 calc R U
H01N H 0.2537 0.3019 0.5127 0.045 Uiso 1 1 calc R U
H01O H 0.2786 0.192 0.4805 0.045 Uiso 1 1 calc R U
C018 C -0.0807(4) 0.8179(4) 0.28528(18) 0.0249(10) Uani 1 1 d . .
H01P H -0.0787 0.8248 0.2471 0.037 Uiso 1 1 calc R U
H01Q H -0.0287 0.8752 0.301 0.037 Uiso 1 1 calc R U
H01R H -0.1676 0.8253 0.2976 0.037 Uiso 1 1 calc R U
C019 C -0.1125(6) 0.4105(5) 0.3582(3) 0.0444(14) Uani 1 1 d . .
H01U H -0.1453 0.4731 0.3785 0.053 Uiso 1 1 calc R U
H01V H -0.1355 0.4219 0.3211 0.053 Uiso 1 1 calc R U
loop_
_atom_site_aniso_label
_atom_site_aniso_U_11
_atom_site_aniso_U_22
_atom_site_aniso_U_33
_atom_site_aniso_U_23
_atom_site_aniso_U_13
_atom_site_aniso_U_12
S001 0.0098(4) 0.0169(5) 0.0144(4) 0.0038(4) -0.0013(4) 0.0015(4)
Cl02 0.0280(6) 0.0284(6) 0.0334(6) -0.0026(5) -0.0012(5) 0.0067(5)
Cl03 0.0386(7) 0.0376(7) 0.0332(7) 0.0031(6) 0.0045(5) -0.0001(6)
Cl04 0.0416(8) 0.0358(7) 0.0640(9) -0.0170(7) -0.0176(7) 0.0177(6)
Cl05 0.0754(13) 0.0792(13) 0.0511(10) 0.0116(9) -0.0005(8) -0.0472(11)
O006 0.0091(13) 0.0133(13) 0.0139(14) -0.0025(11) -0.0008(11) 0.0016(11)
O007 0.0213(15) 0.0086(12) 0.0121(13) 0.0010(10) -0.0022(12) 0.0013(11)
O008 0.0110(13) 0.0148(13) 0.0093(12) -0.0002(11) 0.0007(10) -0.0020(11)
O009 0.0174(15) 0.0138(14) 0.0166(14) 0.0045(12) -0.0043(11) -0.0050(11)
O00A 0.0195(15) 0.0156(14) 0.0111(14) 0.0007(11) -0.0016(11) -0.0019(11)
O00B 0.0233(16) 0.0154(15) 0.0123(14) 0.0028(11) -0.0007(11) -0.0006(12)
O00C 0.0147(15) 0.0302(17) 0.0184(15) -0.0079(13) -0.0028(12) -0.0031(13)
O00D 0.0279(17) 0.0161(15) 0.0236(16) 0.0055(13) 0.0038(13) -0.0070(13)
O00E 0.0141(14) 0.0289(16) 0.0117(14) -0.0030(13) -0.0016(11) 0.0032(13)
O00F 0.0346(19) 0.0141(15) 0.0139(14) -0.0029(11) 0.0029(13) -0.0034(12)
O00G 0.048(2) 0.0171(15) 0.0256(18) -0.0076(14) 0.0066(16) -0.0109(15)
O00H 0.0262(17) 0.0177(15) 0.0310(18) -0.0019(14) -0.0080(14) -0.0053(13)
N00I 0.0128(16) 0.0101(15) 0.0124(16) -0.0005(13) -0.0020(13) 0.0018(13)
N00J 0.0125(16) 0.0118(16) 0.0165(17) -0.0002(14) 0.0018(14) 0.0005(13)
O00K 0.0273(18) 0.0385(19) 0.0249(17) -0.0148(15) -0.0147(14) 0.0167(15)
C00L 0.0120(19) 0.0085(17) 0.0126(19) -0.0002(15) -0.0015(15) 0.0027(15)
C00M 0.017(2) 0.0094(17) 0.018(2) 0.0005(16) -0.0047(16) -0.0020(16)
C00N 0.0078(18) 0.0131(18) 0.0138(19) -0.0014(16) -0.0025(15) 0.0006(14)
C00O 0.015(2) 0.0126(19) 0.014(2) -0.0002(15) 0.0006(15) 0.0002(15)
C00P 0.018(2) 0.0167(19) 0.014(2) -0.0032(17) 0.0009(16) 0.0042(17)
C00Q 0.0112(18) 0.0091(17) 0.0109(18) -0.0024(15) -0.0021(14) 0.0014(14)
C00R 0.012(2) 0.0148(19) 0.015(2) 0.0030(16) -0.0013(15) -0.0046(15)
C00S 0.014(2) 0.0148(18) 0.0152(19) 0.0029(16) -0.0017(15) -0.0022(16)
C00T 0.018(2) 0.0127(18) 0.0138(19) -0.0005(15) -0.0020(16) 0.0021(16)
C00U 0.012(2) 0.0151(19) 0.018(2) 0.0007(16) 0.0082(16) 0.0004(16)
C00V 0.017(2) 0.025(2) 0.0095(18) -0.0030(17) 0.0000(15) 0.0025(17)
C00W 0.016(2) 0.0144(19) 0.022(2) 0.0000(17) -0.0040(17) 0.0011(16)
C00X 0.0113(19) 0.0088(17) 0.0112(18) -0.0024(14) 0.0000(14) 0.0011(15)
C00Y 0.012(2) 0.022(2) 0.023(2) -0.0008(17) -0.0043(17) 0.0030(18)
C00Z 0.0109(19) 0.0101(17) 0.0104(18) 0.0010(15) 0.0000(14) 0.0045(14)
C010 0.026(2) 0.0133(18) 0.020(2) 0.0016(17) -0.0039(18) -0.0015(18)
C011 0.026(2) 0.013(2) 0.0131(19) 0.0018(15) -0.0004(17) -0.0078(18)
C012 0.017(2) 0.020(2) 0.016(2) -0.0047(17) -0.0015(16) 0.0041(17)
C013 0.021(2) 0.020(2) 0.026(2) 0.0074(18) 0.0002(18) -0.0020(18)
C014 0.068(4) 0.016(2) 0.020(2) 0.004(2) -0.008(2) -0.001(2)
C015 0.025(2) 0.033(2) 0.022(2) -0.003(2) -0.0025(19) 0.003(2)
C016 0.015(2) 0.046(3) 0.027(3) -0.006(2) -0.0027(19) 0.001(2)
C017 0.030(3) 0.019(2) 0.042(3) 0.001(2) -0.003(2) -0.010(2)
C018 0.025(2) 0.027(2) 0.023(2) -0.001(2) -0.0049(18) 0.0104(19)
C019 0.039(3) 0.043(3) 0.051(3) 0.009(3) 0.001(3) -0.005(3)
loop_
_atom_type_symbol
_atom_type_description
_atom_type_scat_dispersion_real
_atom_type_scat_dispersion_imag
_atom_type_scat_source
C C 0.0033 0.0016 'International Tables Vol C Tables 4.2.6.8 and 6.1.1.4'
H H 0 0 'International Tables Vol C Tables 4.2.6.8 and 6.1.1.4'
N N 0.0061 0.0033 'International Tables Vol C Tables 4.2.6.8 and 6.1.1.4'
O O 0.0106 0.006 'International Tables Vol C Tables 4.2.6.8 and 6.1.1.4'
S S 0.1246 0.1234 'International Tables Vol C Tables 4.2.6.8 and 6.1.1.4'
Cl Cl 0.1484 0.1585 'International Tables Vol C Tables 4.2.6.8 and 6.1.1.4'
loop_
_geom_angle_atom_site_label_1
_geom_angle_atom_site_label_2
_geom_angle_atom_site_label_3
_geom_angle
C00S S001 C00N 97.37(19)
C00W O006 C00X 117.0(3)
C011 O007 C00Z 117.0(3)
C00N O008 C00Q 112.9(3)
C00U O009 C00R 117.2(3)
C00P O00B C00T 109.9(3)
C00V O00C C016 114.3(4)
C00M O00E C00V 111.3(3)
C00M N00I C00T 111.3(3)
C00M N00I C00O 118.9(3)
C00T N00I C00O 110.2(3)
C010 N00J C00L 122.6(3)
C010 N00J H00J 118.7
C00L N00J H00J 118.7
N00J C00L C00Z 108.6(3)
N00J C00L C00N 112.3(3)
C00Z C00L C00N 112.1(3)
N00J C00L H00L 107.9
C00Z C00L H00L 107.9
C00N C00L H00L 107.9
O00A C00M O00E 122.7(4)
O00A C00M N00I 127.4(4)
O00E C00M N00I 109.9(3)
O008 C00N C00L 111.9(3)
O008 C00N S001 113.2(3)
C00L C00N S001 110.0(3)
O008 C00N H00N 107.1
C00L C00N H00N 107.1
S001 C00N H00N 107.1
N00I C00O C00S 115.0(3)
N00I C00O C00P 101.8(3)
C00S C00O C00P 114.9(3)
N00I C00O H00O 108.2
C00S C00O H00O 108.2
C00P C00O H00O 108.2
O00D C00P O00B 122.0(4)
O00D C00P C00O 128.0(4)
O00B C00P C00O 109.9(3)
O008 C00Q C00R 109.5(3)
O008 C00Q C00X 109.4(3)
C00R C00Q C00X 111.9(3)
O008 C00Q H00Q 108.7
C00R C00Q H00Q 108.7
C00X C00Q H00Q 108.7
O009 C00R C00Q 107.0(3)
O009 C00R H00A 110.3
C00Q C00R H00A 110.3
O009 C00R H00B 110.3
C00Q C00R H00B 110.3
H00A C00R H00B 108.6
C00O C00S S001 107.2(3)
C00O C00S H00C 110.3
S001 C00S H00C 110.3
C00O C00S H00D 110.3
S001 C00S H00D 110.3
H00C C00S H00D 108.5
O00B C00T N00I 104.6(3)
O00B C00T C012 107.4(3)
N00I C00T C012 113.7(3)
O00B C00T C00V 112.3(3)
N00I C00T C00V 103.5(3)
C012 C00T C00V 114.9(3)
O00H C00U O009 123.4(4)
O00H C00U C013 125.3(4)
O009 C00U C013 111.3(4)
O00C C00V O00E 107.7(3)
O00C C00V C018 114.7(3)
O00E C00V C018 107.8(3)
O00C C00V C00T 108.0(3)
O00E C00V C00T 103.2(3)
C018 C00V C00T 114.5(4)
O00K C00W O006 123.4(4)
O00K C00W C00Y 125.5(4)
O006 C00W C00Y 111.1(3)
O006 C00X C00Z 109.7(3)
O006 C00X C00Q 107.9(3)
C00Z C00X C00Q 107.7(3)
O006 C00X H00X 110.5
C00Z C00X H00X 110.5
C00Q C00X H00X 110.5
C00W C00Y H00E 109.5
C00W C00Y H00F 109.5
H00E C00Y H00F 109.5
C00W C00Y H00G 109.5
H00E C00Y H00G 109.5
H00F C00Y H00G 109.5
O007 C00Z C00X 110.7(3)
O007 C00Z C00L 104.6(3)
C00X C00Z C00L 111.7(3)
O007 C00Z H00Z 109.9
C00X C00Z H00Z 109.9
C00L C00Z H00Z 109.9
O00G C010 N00J 122.3(4)
O00G C010 C017 123.5(4)
N00J C010 C017 114.2(4)
O00F C011 O007 123.4(4)
O00F C011 C014 125.6(4)
O007 C011 C014 111.0(4)
C00T C012 H01A 109.5
C00T C012 H01B 109.5
H01A C012 H01B 109.5
C00T C012 H01C 109.5
H01A C012 H01C 109.5
H01B C012 H01C 109.5
C00U C013 H01D 109.5
C00U C013 H01E 109.5
H01D C013 H01E 109.5
C00U C013 H01F 109.5
H01D C013 H01F 109.5
H01E C013 H01F 109.5
C011 C014 H01G 109.5
C011 C014 H01H 109.5
H01G C014 H01H 109.5
C011 C014 H01I 109.5
H01G C014 H01I 109.5
H01H C014 H01I 109.5
Cl04 C015 Cl02 111.8(3)
Cl04 C015 H01S 109.3
Cl02 C015 H01S 109.3
Cl04 C015 H01T 109.3
Cl02 C015 H01T 109.3
H01S C015 H01T 107.9
O00C C016 H01J 109.5
O00C C016 H01K 109.5
H01J C016 H01K 109.5
O00C C016 H01L 109.5
H01J C016 H01L 109.5
H01K C016 H01L 109.5
C010 C017 H01M 109.5
C010 C017 H01N 109.5
H01M C017 H01N 109.5
C010 C017 H01O 109.5
H01M C017 H01O 109.5
H01N C017 H01O 109.5
C00V C018 H01P 109.5
C00V C018 H01Q 109.5
H01P C018 H01Q 109.5
C00V C018 H01R 109.5
H01P C018 H01R 109.5
H01Q C018 H01R 109.5
Cl05 C019 Cl03 112.0(3)
Cl05 C019 H01U 109.2
Cl03 C019 H01U 109.2
Cl05 C019 H01V 109.2
Cl03 C019 H01V 109.2
H01U C019 H01V 107.9
loop_
_geom_bond_atom_site_label_1
_geom_bond_atom_site_label_2
_geom_bond_distance
S001 C00S 1.821(4)
S001 C00N 1.829(4)
Cl02 C015 1.763(5)
Cl03 C019 1.765(6)
Cl04 C015 1.762(5)
Cl05 C019 1.753(6)
O006 C00W 1.356(5)
O006 C00X 1.447(5)
O007 C011 1.346(5)
O007 C00Z 1.450(4)
O008 C00N 1.414(4)
O008 C00Q 1.428(4)
O009 C00U 1.339(5)
O009 C00R 1.448(5)
O00A C00M 1.203(5)
O00B C00P 1.365(5)
O00B C00T 1.448(5)
O00C C00V 1.384(5)
O00C C016 1.444(5)
O00D C00P 1.202(5)
O00E C00M 1.352(5)
O00E C00V 1.464(5)
O00F C011 1.205(5)
O00G C010 1.222(6)
O00H C00U 1.209(5)
N00I C00M 1.377(5)
N00I C00T 1.450(5)
N00I C00O 1.461(5)
N00J C010 1.348(5)
N00J C00L 1.449(5)
N00J H00J 0.88
O00K C00W 1.200(5)
C00L C00Z 1.531(5)
C00L C00N 1.553(5)
C00L H00L 1
C00N H00N 1
C00O C00S 1.511(6)
C00O C00P 1.525(6)
C00O H00O 1
C00Q C00R 1.503(5)
C00Q C00X 1.521(5)
C00Q H00Q 1
C00R H00A 0.99
C00R H00B 0.99
C00S H00C 0.99
C00S H00D 0.99
C00T C012 1.522(5)
C00T C00V 1.560(6)
C00U C013 1.493(6)
C00V C018 1.518(6)
C00W C00Y 1.491(6)
C00X C00Z 1.518(5)
C00X H00X 1
C00Y H00E 0.98
C00Y H00F 0.98
C00Y H00G 0.98
C00Z H00Z 1
C010 C017 1.511(6)
C011 C014 1.501(6)
C012 H01A 0.98
C012 H01B 0.98
C012 H01C 0.98
C013 H01D 0.98
C013 H01E 0.98
C013 H01F 0.98
C014 H01G 0.98
C014 H01H 0.98
C014 H01I 0.98
C015 H01S 0.99
C015 H01T 0.99
C016 H01J 0.98
C016 H01K 0.98
C016 H01L 0.98
C017 H01M 0.98
C017 H01N 0.98
C017 H01O 0.98
C018 H01P 0.98
C018 H01Q 0.98
C018 H01R 0.98
C019 H01U 0.99
C019 H01V 0.99
