#------------------------------------------------------------------------------
#$Date: 2016-09-21 08:17:30 +0300 (Wed, 21 Sep 2016) $
#$Revision: 186674 $
#$URL: file:///home/coder/svn-repositories/cod/cif/1/54/41/1544179.cif $
#------------------------------------------------------------------------------
#
# This file is available in the Crystallography Open Database (COD),
# http://www.crystallography.net/
#
# All data on this site have been placed in the public domain by the
# contributors.
#
data_1544179
_journal_paper_doi               10.1039/C6RA15081K
_chemical_formula_moiety         '2(C21 H10 N3 O4 S), C6 H16 N'
_chemical_formula_sum            'C48 H36 N7 O8 S2'
_chemical_formula_weight         902.96
_space_group_crystal_system      triclinic
_space_group_IT_number           2
_space_group_name_Hall           '-P 1'
_space_group_name_H-M_alt        'P -1'
_symmetry_space_group_name_Hall  '-P 1'
_symmetry_space_group_name_H-M   'P -1'
_atom_sites_solution_hydrogens   geom
_audit_creation_date             2016-02-11
_audit_creation_method
;
Olex2 1.2
(compiled 2015.09.30 svn.r3233 for OlexSys, GUI svn.r5103)
;
_audit_update_record
;
2016-02-15 deposited with the CCDC.
2016-09-20 downloaded from the CCDC.
;
_cell_angle_alpha                103.091(5)
_cell_angle_beta                 90.526(5)
_cell_angle_gamma                94.227(5)
_cell_formula_units_Z            2
_cell_length_a                   6.817(5)
_cell_length_b                   18.957(5)
_cell_length_c                   20.898(5)
_cell_measurement_reflns_used    9882
_cell_measurement_temperature    100
_cell_measurement_theta_max      28.175
_cell_measurement_theta_min      2.954
_cell_volume                     2622(2)
_computing_cell_refinement       'SAINT v8.34A (Bruker, 2013)'
_computing_data_reduction        'SAINT v8.34A (Bruker, 2013)'
_computing_molecular_graphics    'Olex2 (Dolomanov et al., 2009)'
_computing_publication_material  'Olex2 (Dolomanov et al., 2009)'
_computing_structure_refinement  'ShelXL (Sheldrick, 2015)'
_computing_structure_solution    'ShelXT (Sheldrick, 2015)'
_diffrn_ambient_temperature      100
_diffrn_measured_fraction_theta_full 0.951
_diffrn_measured_fraction_theta_max 0.960
_diffrn_measurement_device_type  'Bruker APEX-II CCD'
_diffrn_measurement_method       '\f and \w scans'
_diffrn_radiation_type           MoK\a
_diffrn_radiation_wavelength     0.71073
_diffrn_reflns_av_R_equivalents  0.0901
_diffrn_reflns_av_unetI/netI     0.1058
_diffrn_reflns_Laue_measured_fraction_full 0.951
_diffrn_reflns_Laue_measured_fraction_max 0.960
_diffrn_reflns_limit_h_max       9
_diffrn_reflns_limit_h_min       -9
_diffrn_reflns_limit_k_max       25
_diffrn_reflns_limit_k_min       -25
_diffrn_reflns_limit_l_max       27
_diffrn_reflns_limit_l_min       -27
_diffrn_reflns_number            51549
_diffrn_reflns_point_group_measured_fraction_full 0.951
_diffrn_reflns_point_group_measured_fraction_max 0.960
_diffrn_reflns_theta_full        26.000
_diffrn_reflns_theta_max         28.383
_diffrn_reflns_theta_min         2.997
_diffrn_standards_number         0
_exptl_absorpt_coefficient_mu    0.155
_exptl_absorpt_correction_T_max  0.7457
_exptl_absorpt_correction_T_min  0.6218
_exptl_absorpt_correction_type   multi-scan
_exptl_absorpt_process_details
'SADABS-2014/4 (Bruker,2014/4) was used for absorption correction. wR2(int) was 0.1115 before and 0.0701 after correction. The Ratio of minimum to maximum transmission is 0.8338. The \l/2 correction factor is 0.00150.'
_exptl_crystal_colour            'clear light colourless'
_exptl_crystal_colour_lustre     clear
_exptl_crystal_colour_modifier   light
_exptl_crystal_colour_primary    colourless
_exptl_crystal_density_diffrn    1.144
_exptl_crystal_description       block
_exptl_crystal_F_000             938
_exptl_crystal_size_max          0.3
_exptl_crystal_size_mid          0.2
_exptl_crystal_size_min          0.1
_refine_diff_density_max         2.039
_refine_diff_density_min         -0.440
_refine_diff_density_rms         0.094
_refine_ls_extinction_method     none
_refine_ls_goodness_of_fit_ref   0.984
_refine_ls_hydrogen_treatment    constr
_refine_ls_matrix_type           full
_refine_ls_number_parameters     589
_refine_ls_number_reflns         12607
_refine_ls_number_restraints     0
_refine_ls_restrained_S_all      0.984
_refine_ls_R_factor_all          0.1450
_refine_ls_R_factor_gt           0.0881
_refine_ls_shift/su_max          0.000
_refine_ls_shift/su_mean         0.000
_refine_ls_structure_factor_coef Fsqd
_refine_ls_weighting_details
'w=1/[\s^2^(Fo^2^)+(0.1349P)^2^] where P=(Fo^2^+2Fc^2^)/3'
_refine_ls_weighting_scheme      calc
_refine_ls_wR_factor_gt          0.2092
_refine_ls_wR_factor_ref         0.2315
_reflns_Friedel_coverage         0.000
_reflns_number_gt                7047
_reflns_number_total             12607
_reflns_threshold_expression     'I > 2\s(I)'
_iucr_refine_instructions_details
;

    17janb_0m.res created by SHELXL-2014/7

TITL 17janb_0m_a.res in P-1
REM Old TITL 17janb_0m in P-1 #2
REM SHELXT solution in P-1
REM R1 0.206, Rweak 0.023, Alpha 0.105, Orientation as input
REM Formula found by SHELXT: C56 N7 O9 S2
CELL 0.71073 6.817 18.957 20.898 103.091 90.526 94.227
ZERR 2 0.005 0.005 0.005 0.005 0.005 0.005
LATT 1
SFAC C H N O S
UNIT 96 72 14 16 4
 
L.S. 10
PLAN  40
BOND $H
LIST 6
fmap 2
acta 52
MORE -1
CONF
OMIT -1 -6 9
OMIT -3 6 1
OMIT 4 -1 1
OMIT 1 2 10
OMIT 2 -2 4
OMIT 2 2 8
OMIT 3 -4 3
OMIT 1 -1 7
OMIT 0 0 3
OMIT -2 8 1
OMIT -3 -9 1
OMIT 0 6 6
OMIT 3 -6 2
OMIT 2 -3 6
OMIT 1 1 1
OMIT 4 0 5
OMIT -6 2 0
OMIT 0 -1 3
OMIT 2 7 0
OMIT 1 4 7
OMIT 0 0 2
OMIT 1 -2 3
OMIT 0 -1 6
OMIT 1 -5 16
OMIT -3 15 0
OMIT 1 2 4
OMIT -2 1 17
OMIT 4 -3 5
OMIT 3 6 0
OMIT 3 9 1
OMIT -1 -7 10
OMIT -3 0 4
OMIT 2 -1 5
OMIT -1 0 1
OMIT 5 -3 5
OMIT -3 -13 5
OMIT 0 -10 6
OMIT 2 -6 7
OMIT 3 0 5
OMIT -1 -5 18
OMIT 3 3 11
OMIT 3 -5 1
OMIT 2 -7 4
OMIT -2 1 2
OMIT 3 -6 3
OMIT 2 13 1
OMIT -2 3 1
OMIT 1 5 0
OMIT 0 -5 8
OMIT -3 -9 2
OMIT 6 5 5
OMIT -5 2 11
OMIT -3 -14 1
OMIT 2 -1 9
OMIT -2 4 0
OMIT 3 4 10
OMIT 4 -6 1
OMIT 1 -15 1
OMIT 2 5 0
OMIT 1 -2 10
OMIT -3 2 1
OMIT 3 -6 4
OMIT 2 5 13
OMIT 5 6 5
OMIT 2 4 9
OMIT 2 1 2
OMIT 3 -7 11
OMIT 2 4 5
OMIT 1 4 15
OMIT -1 10 7
OMIT 3 -15 7
OMIT 1 2 13
OMIT 2 4 3
OMIT -1 3 9
OMIT 1 -16 2
OMIT 1 9 3
OMIT 0 -1 4
OMIT 1 2 9
OMIT 1 -8 6
OMIT 1 -8 1
OMIT 0 5 5
OMIT 1 -6 18
OMIT 0 -7 14
OMIT 0 -5 17
OMIT 0 2 0
OMIT -3 3 6
OMIT 1 -6 3
OMIT 2 1 5
OMIT 3 -6 10
OMIT 0 -7 10
OMIT 1 8 1
OMIT 1 3 1
OMIT 0 7 4
OMIT 0 -4 8
OMIT 3 -11 1
OMIT 1 6 0
OMIT 0 -5 15
OMIT 3 1 7
OMIT 3 -14 2
OMIT 2 0 10
OMIT 2 8 0
OMIT -3 -7 24
OMIT 1 -15 17
OMIT -1 8 3
OMIT 5 -9 3
OMIT -1 9 0
OMIT 5 -3 10
OMIT 1 1 9
OMIT 1 -4 6
OMIT 5 -10 13
OMIT -1 1 9
OMIT -1 -3 17
OMIT 1 8 13
OMIT 1 4 11
OMIT 3 14 1
OMIT 2 6 9
OMIT 0 2 10
OMIT -4 -8 14
OMIT -3 2 5
OMIT 2 2 4
OMIT -1 -8 1
OMIT -1 0 3
OMIT -2 -2 11
OMIT 0 3 10
OMIT -3 -15 9
OMIT -1 4 12
OMIT -2 14 5
OMIT 1 -7 16
OMIT 0 -4 5
OMIT 1 -2 1
OMIT -1 -7 3
OMIT 3 -3 2
OMIT 1 3 0
OMIT -2 7 13
OMIT 2 -5 7
OMIT 0 -4 3
OMIT 4 -11 13
OMIT 4 -4 10
OMIT 4 -2 3
OMIT 3 -7 8
OMIT 4 0 0
OMIT 7 -4 8
OMIT -1 14 7
OMIT 3 4 1
OMIT 3 -1 7
OMIT 0 -5 4
OMIT 1 6 13
OMIT 0 19 0
OMIT 0 -7 1
OMIT 4 5 14
OMIT 1 -3 14
OMIT -1 6 5
OMIT 2 -4 9
OMIT 0 -5 6
OMIT 3 2 4
OMIT 0 11 3
OMIT -3 -8 1
OMIT -5 0 1
OMIT -5 -7 4
OMIT 0 5 12
OMIT 1 -3 13
OMIT 0 -5 16
OMIT -2 -14 4
OMIT 3 5 7
OMIT 1 -7 5
OMIT 2 -12 10
OMIT 1 0 13
OMIT 3 4 14
OMIT -1 6 9
OMIT -2 -4 13
OMIT -3 -2 5
OMIT -2 -10 4
OMIT -5 0 4
OMIT -5 0 3
OMIT 0 3 14
OMIT 2 4 1
OMIT -3 5 15
OMIT 2 -8 12
OMIT 4 1 2
OMIT -2 0 18
OMIT 3 4 3
OMIT 4 4 10
OMIT 5 10 3
OMIT 2 3 12
OMIT 3 -2 11
OMIT -2 0 4
OMIT 5 4 5
OMIT 0 -2 9
OMIT -1 2 6
OMIT -1 -3 11
OMIT 5 13 6
OMIT -1 -1 3
OMIT 2 7 15
OMIT 3 8 1
OMIT -1 -14 7
OMIT 0 6 11
OMIT -3 5 4
OMIT 3 -13 2
OMIT -1 6 4
OMIT -1 -3 1
OMIT 5 8 2
OMIT -5 -5 10
OMIT 3 -2 10
OMIT -6 1 5
OMIT -2 -10 2
OMIT -5 -7 9
OMIT -4 -9 7
OMIT 0 -4 1
OMIT 0 -5 7
OMIT 5 -1 4
OMIT 3 -15 5
OMIT 4 -3 15
OMIT -2 -1 3
OMIT -2 -5 20
OMIT -2 13 0
OMIT 1 -13 8
OMIT -1 -3 18
OMIT 2 -7 10
OMIT -5 -3 5
OMIT 2 -3 8
OMIT -3 -14 18
OMIT -4 0 5
OMIT 4 5 8
OMIT 1 6 6
OMIT 0 -13 19
OMIT 5 2 9
OMIT 0 -10 1
OMIT 0 3 6
OMIT 4 -4 12
OMIT 2 -9 3
OMIT 0 -3 1
OMIT -2 -8 6
OMIT -2 -7 1
OMIT 0 -2 6
OMIT 2 -2 6
OMIT 3 13 1
OMIT -4 -3 4
OMIT 4 -6 2
OMIT 0 -1 25
OMIT 2 -7 16
OMIT 0 -4 2
OMIT 0 -7 16
OMIT 4 -9 13
OMIT -2 2 6
OMIT 2 1 4
OMIT -1 -9 4
OMIT 0 11 1
OMIT -2 5 0
OMIT 1 11 12
OMIT 3 -7 2
OMIT 1 -8 12
OMIT -2 -6 5
OMIT 0 -4 12
OMIT 6 -2 2
OMIT 5 -3 3
OMIT 3 -5 16
OMIT 4 -7 17
OMIT 1 -10 20
OMIT 2 -6 9
OMIT -6 8 15
OMIT -1 -6 6
OMIT 2 -7 7
OMIT 1 -7 7
OMIT 1 -5 17
OMIT -2 -12 25
OMIT 4 7 1
OMIT 3 -16 5
OMIT 0 -2 2
OMIT 0 3 8
OMIT -2 -1 15
OMIT 4 11 1
OMIT 2 -5 5
OMIT 0 5 1
OMIT -1 -15 1
OMIT -2 -2 9
OMIT 1 0 1
OMIT -8 -9 3
OMIT -4 -10 6
OMIT 1 -2 5
OMIT 0 6 9
OMIT 4 7 0
OMIT -1 1 12
OMIT 3 0 12
OMIT 2 20 6
OMIT 4 3 2
OMIT -4 -8 1
OMIT 4 2 0
OMIT 4 -6 12
OMIT 3 -2 3
OMIT 2 10 2
OMIT 5 -9 1
OMIT 4 -5 9
OMIT 3 1 0
OMIT -1 0 17
OMIT 0 -12 1
OMIT 0 7 15
OMIT -2 -4 18
OMIT 3 1 16
OMIT 1 6 12
OMIT 4 -18 8
OMIT -4 -9 1
OMIT -5 7 20
OMIT 0 8 14
OMIT 0 -3 16
OMIT -1 -19 17
OMIT -1 6 3
OMIT -1 3 8
OMIT -2 -10 6
OMIT -3 -12 22
OMIT 0 3 2
OMIT -6 6 15
OMIT -4 0 8
OMIT 6 4 13
OMIT 1 21 6
OMIT 2 5 9
OMIT 0 -8 11
OMIT 0 -1 7
OMIT 1 -7 3
OMIT 4 1 5
OMIT -2 -1 14
OMIT -6 -8 15
OMIT -2 3 5
OMIT 4 -10 3
OMIT 3 9 2
OMIT 3 0 7
OMIT -4 -4 10
OMIT -3 15 6
OMIT -1 -5 16
OMIT 1 -8 4
OMIT -4 13 15
OMIT -3 2 10
OMIT -3 -1 2
OMIT -2 0 3
OMIT 0 7 9
OMIT 4 -1 6
OMIT 2 -6 17
OMIT 4 -4 11
OMIT 4 8 4
OMIT -3 -3 1
OMIT 2 10 1
OMIT -2 -21 7
OMIT -4 -1 10
OMIT -3 6 8
OMIT 3 -4 2
OMIT 4 12 0
OMIT -2 -8 4
OMIT 3 -12 6
OMIT -1 -4 14
OMIT 4 -9 8
OMIT 1 -8 10
OMIT 2 0 0
OMIT 0 0 10
OMIT -4 -6 2
OMIT 0 12 2
OMIT 4 11 6
OMIT 0 -7 7
OMIT -5 -3 7
OMIT 0 -5 2
OMIT -7 3 2
OMIT 2 13 8
OMIT -1 -9 5
OMIT 3 -17 1
OMIT 0 -8 12
OMIT 1 3 12
OMIT -4 14 6
OMIT -4 3 7
OMIT 5 5 4
OMIT 1 17 9
OMIT -2 -1 1
OMIT 1 -2 2
OMIT -1 -7 12
OMIT 1 1 21
OMIT -4 0 2
OMIT 2 -2 7
OMIT -1 7 14
OMIT 2 12 6
OMIT -2 5 14
OMIT -3 10 15
OMIT 2 -8 19
OMIT 5 7 15
OMIT 2 10 3
OMIT 2 9 5
OMIT 2 11 2
OMIT 2 10 4
OMIT -2 -13 1
OMIT 0 7 14
OMIT -3 -10 2
OMIT 4 3 6
OMIT -6 -16 4
OMIT 3 11 0
OMIT 1 8 5
OMIT 6 -10 1
OMIT 1 0 10
OMIT 5 -10 14
OMIT 0 2 4
OMIT 0 5 13
OMIT -2 -13 4
OMIT 1 2 11
OMIT -1 14 12
OMIT -4 1 15
OMIT -3 -6 11
OMIT -1 -1 11
OMIT 2 7 4
OMIT 4 9 4
OMIT -1 4 6
OMIT 6 0 3
OMIT 1 2 3
OMIT -2 3 3
OMIT 1 4 12
OMIT -2 9 10
OMIT 0 -4 17
OMIT -5 -9 14
OMIT -2 -13 23
OMIT 0 -10 5
OMIT 1 -10 17
OMIT 2 3 8
OMIT 3 12 0
OMIT 2 12 8
OMIT -1 -4 13
OMIT -2 5 11
OMIT 0 14 10
OMIT 3 5 3
OMIT 2 11 3
OMIT 0 -5 13
OMIT 2 -6 19
OMIT -2 13 1
OMIT 1 5 12
OMIT 3 -5 13
OMIT 1 -1 14
OMIT 1 -2 4
OMIT -4 -8 6
OMIT -1 7 15
OMIT -2 -8 14
OMIT -5 -6 12
OMIT 2 8 7
OMIT 1 5 11
OMIT 1 -2 6
OMIT 4 3 19
OMIT -1 23 2
OMIT 1 -16 14
OMIT -5 1 7
OMIT -2 -2 17
OMIT 3 3 20
OMIT -3 -7 14
OMIT 2 3 6
OMIT 6 -1 4
OMIT -1 -7 11
OMIT 1 -9 8
OMIT 5 8 0
OMIT 2 8 2
OMIT 2 4 2
OMIT 2 5 1
OMIT -1 -6 7
OMIT 4 6 5
OMIT 4 5 5
OMIT 4 4 3
OMIT 3 14 3
OMIT -1 -7 27
OMIT -2 -1 17
OMIT -4 -9 8
OMIT 5 3 7
OMIT 3 -10 14
OMIT 2 12 1
OMIT 1 -10 11
OMIT 0 -8 16
OMIT 2 -1 8
OMIT 0 0 15
OMIT -4 1 5
OMIT 1 -11 5
OMIT 2 -11 7
OMIT -2 -2 19
OMIT -2 -1 18
OMIT 3 10 5
OMIT -2 -1 19
OMIT -2 2 15
OMIT -1 2 10
OMIT 1 -13 12
OMIT -3 -8 12
OMIT -1 2 11
OMIT -2 -7 2
OMIT 3 -6 15
OMIT -5 5 3
OMIT 3 15 3
OMIT 3 9 4
OMIT 1 -9 2
OMIT 5 5 5
OMIT 2 -5 4
OMIT -2 1 18
OMIT -4 -8 16
OMIT -3 2 9
OMIT -1 -15 22
OMIT 5 0 16
OMIT -3 -7 22
OMIT 4 -2 6
OMIT 6 10 0
OMIT 0 -14 1
OMIT 0 -16 16
OMIT -2 -17 9
OMIT -6 -14 6
OMIT -4 -9 3
OMIT -4 3 13
OMIT 0 -5 25
OMIT 1 1 6
OMIT -5 -5 17
OMIT -1 3 0
REM <olex2.extras>
REM <HklSrc "%.\\17janb_0m-mask.hkl">
REM </olex2.extras>
 
WGHT    0.134900
FVAR       0.26819
S001  5    0.272179    0.090750    0.294822    11.00000    0.01204    0.01765 =
         0.02685    0.01135   -0.00072   -0.00080
S002  5    0.939196    0.712146    0.263285    11.00000    0.02723    0.01756 =
         0.02955    0.00724    0.00551    0.00510
O003  4    0.321578    0.371121    0.344868    11.00000    0.01576    0.01547 =
         0.01546   -0.00230   -0.00123   -0.00200
O004  4    0.076498    0.054161    0.274782    11.00000    0.01631    0.01779 =
         0.03353    0.00928   -0.00233   -0.00765
O005  4    0.844397    0.430334    0.214423    11.00000    0.03275    0.01391 =
         0.01507    0.00117    0.00564    0.00703
O006  4    0.303065    0.107432    0.364947    11.00000    0.02473    0.02886 =
         0.02710    0.01808   -0.00296   -0.00084
O007  4    0.429108    0.052701    0.259119    11.00000    0.01604    0.02667 =
         0.04048    0.01872    0.00237    0.00663
N008  3    0.844155    0.419446    0.319788    11.00000    0.01359    0.01022 =
         0.01908    0.00350    0.00181    0.00024
O009  4    0.770923    0.749518    0.291210    11.00000    0.03295    0.02001 =
         0.03500    0.01032    0.01124    0.00586
O00A  4    1.128638    0.748292    0.289604    11.00000    0.02736    0.01904 =
         0.04380    0.01028    0.00680   -0.00544
O00B  4    0.930677    0.693425    0.190941    11.00000    0.05253    0.02175 =
         0.03147    0.00912    0.00701    0.00276
N00C  3    0.321868    0.384631    0.241463    11.00000    0.02246    0.01616 =
         0.01639    0.00296    0.00631    0.00351
N00D  3   -0.093503   -0.013006    0.367058    11.00000    0.01392    0.02461 =
         0.02031    0.00484   -0.00048    0.00443
AFIX  13
H00D  2   -0.017673    0.008175    0.335455    11.00000   -1.20000
AFIX   0
 
N00E  3    0.707276   -0.104421    0.090952    11.00000    0.04908    0.01356 =
         0.02109   -0.00263    0.00654   -0.00237
N00F  3    0.741722    0.070593   -0.009824    11.00000    0.11180    0.02291 =
         0.01351   -0.00036   -0.00127    0.00490
N00G  3    0.355494    0.724080    0.569855    11.00000    0.03974    0.02899 =
         0.01718   -0.00089   -0.00055   -0.00291
C00H  1    0.763788    0.157929    0.181636    11.00000    0.01219    0.00841 =
         0.01799   -0.00180   -0.00017   -0.00185
C00I  1    0.790538    0.260798    0.273770    11.00000    0.00928    0.01147 =
         0.01339   -0.00272    0.00069    0.00137
AFIX  43
H00I  2    0.794585    0.279750    0.318928    11.00000   -1.20000
AFIX   0
 
N00J  3    0.607717    0.899092    0.483488    11.00000    0.03582    0.02163 =
         0.02337    0.00310   -0.00469   -0.00609
C00K  1    0.302126    0.303314    0.304629    11.00000    0.01199    0.01531 =
         0.01402    0.00046   -0.00125    0.00132
C00L  1    0.283044    0.248544    0.187758    11.00000    0.01473    0.01380 =
         0.01732    0.00013   -0.00114    0.00348
C00M  1    0.747261    0.078614    0.161508    11.00000    0.01235    0.01561 =
         0.01742    0.00085   -0.00171    0.00218
AFIX  43
H00M  2    0.745071    0.055196    0.196112    11.00000   -1.20000
AFIX   0
 
C00N  1    0.287326    0.236700    0.322607    11.00000    0.01142    0.02117 =
         0.01456    0.00585   -0.00219   -0.00035
AFIX  43
H00N  2    0.286126    0.233616    0.366388    11.00000   -1.20000
AFIX   0
 
C00O  1    0.773502    0.204564    0.138963    11.00000    0.02063    0.01855 =
         0.01379   -0.00292   -0.00208    0.00684
AFIX  43
H00O  2    0.765493    0.185412    0.093844    11.00000   -1.20000
AFIX   0
C00P  1    0.891776    0.554944    0.371341    11.00000    0.01732    0.01439 =
         0.02429    0.00343    0.00220   -0.00044
C00Q  1    0.828980    0.385542    0.258008    11.00000    0.02379    0.01503 =
         0.01962    0.00689    0.00171    0.00369
C00R  1    0.794840    0.278804    0.162576    11.00000    0.02295    0.01358 =
         0.02458    0.00724    0.00271    0.00496
AFIX  43
H00R  2    0.802973    0.309657    0.133705    11.00000   -1.20000
AFIX   0
C00S  1    0.734640    0.033596    0.101230    11.00000    0.01487    0.01712 =
         0.02294    0.00402    0.00104   -0.00243
 
C00T  1    0.278344    0.252693    0.121341    11.00000    0.03263    0.01923 =
         0.01068    0.00104   -0.00005    0.01345
AFIX  43
H00T  2    0.286530    0.297799    0.110595    11.00000   -1.20000
AFIX   0
C00U  1    0.334474    0.416598    0.302887    11.00000    0.01228    0.01643 =
         0.02232    0.00107    0.00584    0.00202
C00V  1    0.375197    0.521022    0.399608    11.00000    0.01583    0.01524 =
         0.02594    0.00375    0.00280   -0.00223
AFIX  43
H00V  2    0.361744    0.488959    0.427302    11.00000   -1.20000
AFIX   0
C00W  1    0.410580    0.741725    0.524611    11.00000    0.02124    0.01407 =
         0.02278   -0.00317   -0.00413   -0.00168
 
C00X  1    0.888798    0.550471    0.437439    11.00000    0.01414    0.01908 =
         0.02520    0.00620    0.00357   -0.00011
AFIX  43
H00X  2    0.871491    0.505380    0.448031    11.00000   -1.20000
AFIX   0
C00Y  1    0.716714   -0.043788    0.095574    11.00000    0.02445    0.02298 =
         0.01141   -0.00080    0.00322    0.00016
 
C00Z  1    0.250658    0.116796    0.152615    11.00000    0.01024    0.01321 =
         0.02088   -0.00308   -0.00456    0.00074
AFIX  43
H00Z  2    0.242548    0.070948    0.161854    11.00000   -1.20000
AFIX   0
C010  1    0.300805    0.310805    0.240695    11.00000    0.01282    0.00993 =
         0.01934   -0.00132   -0.00136    0.00030
C011  1    0.274666    0.176122    0.272220    11.00000    0.01132    0.01314 =
         0.01987    0.00591   -0.00157   -0.00011
 
C012  1    0.738745    0.055856    0.039555    11.00000    0.04615    0.01248 =
         0.02832   -0.00091   -0.00136    0.00350
C013  1    0.771101    0.186715    0.248960    11.00000    0.00755    0.01489 =
         0.02038    0.00355   -0.00002    0.00092
AFIX  43
H013  2    0.762793    0.155667    0.277656    11.00000   -1.20000
AFIX   0
C014  1    0.804094    0.307111    0.230398    11.00000    0.00925    0.01431 =
         0.02359    0.00289    0.00323    0.00311
 
C015  1    0.268424    0.179733    0.204689    11.00000    0.00975    0.01521 =
         0.02071    0.00277   -0.00076    0.00370
C016  1    0.245376    0.123505    0.088115    11.00000    0.03112    0.01334 =
         0.01777   -0.00951   -0.00189    0.00392
AFIX  43
H016  2    0.230470    0.081925    0.054330    11.00000   -1.20000
AFIX   0
C017  1    0.406775    0.595155    0.425930    11.00000    0.01889    0.01734 =
         0.01727   -0.00424    0.00308   -0.00300
AFIX  43
H017  2    0.411775    0.612508    0.471303    11.00000   -1.20000
AFIX   0
 
C018  1    0.868978    0.492604    0.318586    11.00000    0.01773    0.01275 =
         0.02863    0.00361    0.00581    0.00597
C019  1    0.917652    0.623809    0.353602    11.00000    0.02402    0.01619 =
         0.02218    0.00365    0.01021    0.00680
C01A  1    0.911334    0.612386    0.486326    11.00000    0.02010    0.02472 =
         0.02179   -0.00033    0.00273   -0.00105
AFIX  43
H01A  2    0.909792    0.609221    0.530085    11.00000   -1.20000
AFIX   0
 
C01B  1    0.477268    0.765010    0.467087    11.00000    0.01552    0.02012 =
         0.01535    0.00194   -0.00098    0.00027
C01C  1    0.547877    0.840324    0.476913    11.00000    0.01834    0.02606 =
         0.01697    0.00394    0.00162    0.00109
C01D  1    0.936757    0.680626    0.470734    11.00000    0.01462    0.01711 =
         0.03207   -0.00340   -0.00092   -0.00020
AFIX  43
H01D  2    0.950146    0.722299    0.504449    11.00000   -1.20000
AFIX   0
 
C01E  1    0.431058    0.643861    0.385221    11.00000    0.01606    0.02275 =
         0.02191    0.00349    0.00254    0.00715
C01F  1   -0.082001    0.041258    0.430809    11.00000    0.02544    0.01789 =
         0.03413    0.00159    0.00997    0.00145
AFIX  23
H01B  2    0.052423    0.046831    0.447886    11.00000   -1.20000
H01C  2   -0.164458    0.022531    0.461735    11.00000   -1.20000
AFIX   0
 
C01G  1    0.477293    0.721558    0.406347    11.00000    0.01694    0.02319 =
         0.01824    0.00357   -0.00065    0.00374
AFIX  43
H01G  2    0.512190    0.744937    0.373036    11.00000   -1.20000
AFIX   0
 
C01H  1    0.942167    0.686935    0.407385    11.00000    0.01579    0.00901 =
         0.03612    0.00123    0.00291   -0.00054
AFIX  43
H01H  2    0.962038    0.732781    0.398468    11.00000   -1.20000
AFIX   0
 
C01I  1    0.363699    0.494746    0.331922    11.00000    0.01490    0.01789 =
         0.02682    0.00035    0.00045   -0.00016
C01J  1    0.871430    0.499179    0.253927    11.00000    0.01901    0.01621 =
         0.02268    0.00079    0.00585    0.00344
C01K  1    0.261919    0.191138    0.072971    11.00000    0.02983    0.02427 =
         0.01615    0.00479    0.00115    0.00650
AFIX  43
H01K  2    0.261762    0.194365    0.029223    11.00000   -1.20000
AFIX   0
 
C01L  1    0.916843    0.626176    0.286493    11.00000    0.01322    0.01444 =
         0.02916    0.00492    0.00261    0.00083
C01M  1   -0.300180   -0.030701    0.340310    11.00000    0.01520    0.03246 =
         0.02756    0.01084    0.00284    0.00347
AFIX  23
H01E  2   -0.373511   -0.058122    0.367403    11.00000   -1.20000
H01F  2   -0.362709    0.014080    0.342438    11.00000   -1.20000
AFIX   0
C01N  1   -0.143477    0.114274    0.427406    11.00000    0.03248    0.02104 =
         0.03095   -0.00100    0.01011    0.00458
AFIX 137
H01I  2   -0.068940    0.132053    0.394789    11.00000   -1.50000
H01J  2   -0.119975    0.147268    0.469418    11.00000   -1.50000
H01L  2   -0.281073    0.110480    0.415822    11.00000   -1.50000
AFIX   0
 
C01O  1    0.383862    0.542404    0.290521    11.00000    0.02352    0.02084 =
         0.02877   -0.00012    0.00391    0.00331
AFIX  43
H01O  2    0.374324    0.524858    0.245200    11.00000   -1.20000
AFIX   0
C01P  1    0.418314    0.616352    0.316945    11.00000    0.01925    0.02142 =
         0.02734    0.00618    0.00167   -0.00012
AFIX  43
H01P  2    0.433171    0.648141    0.289035    11.00000   -1.20000
AFIX   0
 
C01Q  1   -0.001322   -0.081955    0.372801    11.00000    0.02607    0.01783 =
         0.02891    0.00629    0.00124    0.00713
AFIX  23
H01M  2   -0.047483   -0.096116    0.412185    11.00000   -1.20000
H01N  2   -0.044380   -0.120694    0.335379    11.00000   -1.20000
AFIX   0
 
C01S  1    0.895520    0.565103    0.235688    11.00000    0.02205    0.01682 =
         0.02597    0.00745    0.00770    0.00072
AFIX  43
H01S  2    0.897212    0.568006    0.191863    11.00000   -1.20000
AFIX   0
 
C01T  1    0.221116   -0.073103    0.375642    11.00000    0.02022    0.02102 =
         0.03842    0.01267    0.00018    0.00567
AFIX 137
H01Q  2    0.267813   -0.058956    0.336837    11.00000   -1.50000
H01R  2    0.271861   -0.118344    0.378139    11.00000   -1.50000
H01T  2    0.264867   -0.036392    0.413755    11.00000   -1.50000
AFIX   0
C01U  1   -0.307608   -0.073784    0.270821    11.00000    0.03252    0.02496 =
         0.03076    0.00639   -0.00646    0.00533
AFIX 137
H01U  2   -0.219039   -0.050432    0.245182    11.00000   -1.50000
H01V  2   -0.439077   -0.076789    0.253021    11.00000   -1.50000
H01W  2   -0.269478   -0.121805    0.269626    11.00000   -1.50000
AFIX   0
HKLF 4
 
REM  17janb_0m_a.res in P-1
REM R1 =  0.0881 for    7047 Fo > 4sig(Fo)  and  0.1450 for all   12607 data
REM    589 parameters refined using      0 restraints
 
END  
     
WGHT      0.1348      0.0000 

REM Highest difference peak  2.039,  deepest hole -0.440,  1-sigma level  0.094
Q1    1   0.8131  0.7031  0.2400  11.00000  0.05    2.04
Q2    1   1.0033  0.4924  0.1963  11.00000  0.05    0.92
Q3    1   0.6464  0.7434  0.2673  11.00000  0.05    0.82
Q4    1   0.7860  0.6784  0.1698  11.00000  0.05    0.78
Q5    1   1.0347  0.7440  0.2557  11.00000  0.05    0.66
Q6    1   0.6870  0.1167  0.1673  11.00000  0.05    0.64
Q7    1   0.8093  0.6104  0.2627  11.00000  0.05    0.63
Q8    1   0.7912  0.5553  0.2133  11.00000  0.05    0.59
Q9    1   0.3140  0.6200  0.2958  11.00000  0.05    0.59
Q10   1   0.7471  0.4248  0.2006  11.00000  0.05    0.59
Q11   1   0.7617  0.4881  0.2356  11.00000  0.05    0.56
Q12   1   0.3317  0.6466  0.3609  11.00000  0.05    0.55
Q13   1   0.2921  0.5445  0.2719  11.00000  0.05    0.52
Q14   1   0.3497  0.8464  0.4411  11.00000  0.05    0.51
Q15   1   0.3462 -0.0926  0.4449  11.00000  0.05    0.49
Q16   1   0.8251  0.6815  0.3815  11.00000  0.05    0.47
Q17   1   0.6631  0.7613  0.5062  11.00000  0.05    0.45
Q18   1   0.2560  0.1370  0.2817  11.00000  0.05    0.44
Q19   1   0.1472  0.0817  0.2776  11.00000  0.05    0.42
Q20   1   0.8739  0.5531  0.4036  11.00000  0.05    0.42
Q21   1   0.2861  0.5004  0.3121  11.00000  0.05    0.42
Q22   1   0.8120  0.6250  0.3261  11.00000  0.05    0.42
Q23   1   0.3498  0.7278  0.3744  11.00000  0.05    0.41
Q24   1   0.8110  0.6338  0.4795  11.00000  0.05    0.41
Q25   1  -0.3556 -0.0055  0.3781  11.00000  0.05    0.41
Q26   1   0.3192  0.6103  0.4024  11.00000  0.05    0.40
Q27   1   0.8418  0.6835  0.4500  11.00000  0.05    0.39
Q28   1   0.3010  0.5251  0.3779  11.00000  0.05    0.38
Q29   1   0.1208  0.0732  0.2506  11.00000  0.05    0.38
Q30   1  -0.2354  0.1549  0.4241  11.00000  0.05    0.38
Q31   1   0.2809  0.1779  0.2380  11.00000  0.05    0.38
Q32   1   0.7862  0.4934  0.3016  11.00000  0.05    0.38
Q33   1   0.3600  0.1035  0.3291  11.00000  0.05    0.37
Q34   1   0.3017  0.2497  0.1539  11.00000  0.05    0.37
Q35   1   0.7834  0.4615  0.1787  11.00000  0.05    0.36
Q36   1   0.3220  0.3487  0.2328  11.00000  0.05    0.36
Q37   1   0.3467  0.7689  0.4321  11.00000  0.05    0.35
Q38   1   1.1187  0.6298  0.5729  11.00000  0.05    0.35
Q39   1   1.1402  0.4432  0.1732  11.00000  0.05    0.35
Q40   1   1.0886  0.7796  0.2394  11.00000  0.05    0.35

  REM The information below was added by Olex2.
  REM
  REM R1 = 0.0881 for 7047 Fo > 4sig(Fo) and 0.1450 for all 12607 data
  REM n/a parameters refined using n/a restraints
  REM Highest difference peak 2.04, deepest hole -0.44
  REM Mean Shift 0, Max Shift 0.000.
  
  REM +++ Tabular Listing of Refinement Information +++
  REM R1_all = 0.1450
  REM R1_gt = 0.0881
  REM wR_ref = 0.2315
  REM GOOF = 0.984
  REM Shift_max = 0.000
  REM Shift_mean = 0
  REM Reflections_all = 12607
  REM Reflections_gt = 7047
  REM Parameters = n/a
  REM Hole = -0.44
  REM Peak = 2.04
  REM Flack = n/a
  
  
;
_cod_data_source_file            c6ra15081k2.cif
_cod_data_source_block           17janb_0m
_cod_database_code               1544179
_shelx_space_group_comment
;
The symmetry employed for this shelxl refinement is uniquely defined
by the following loop, which should always be used as a source of
symmetry information in preference to the above space-group names.
They are only intended as comments.
;
_olex2_refinement_description
;
1. Fixed Uiso
 At 1.2 times of:
  All C(H) groups, All C(H,H) groups, All N(H) groups
 At 1.5 times of:
  All C(H,H,H) groups
2.a Ternary CH refined with riding coordinates:
 N00D(H00D)
2.b Secondary CH2 refined with riding coordinates:
 C01F(H01B,H01C), C01M(H01E,H01F), C01Q(H01M,H01N)
2.c Aromatic/amide H refined with riding coordinates:
 C00I(H00I), C00M(H00M), C00N(H00N), C00O(H00O), C00R(H00R), C00T(H00T),
 C00V(H00V), C00X(H00X), C00Z(H00Z), C013(H013), C016(H016), C017(H017),
 C01A(H01A), C01D(H01D), C01G(H01G), C01H(H01H), C01K(H01K), C01O(H01O),
 C01P(H01P), C01S(H01S)
2.d Idealised Me refined as rotating group:
 C01N(H01I,H01J,H01L), C01T(H01Q,H01R,H01T), C01U(H01U,H01V,H01W)
;
_shelx_shelxl_version_number     2014/7
_olex2_submission_special_instructions 'No special instructions were received'
loop_
_space_group_symop_operation_xyz
'x, y, z'
'-x, -y, -z'
loop_
_atom_site_label
_atom_site_type_symbol
_atom_site_fract_x
_atom_site_fract_y
_atom_site_fract_z
_atom_site_U_iso_or_equiv
_atom_site_adp_type
_atom_site_occupancy
_atom_site_site_symmetry_order
_atom_site_calc_flag
_atom_site_refinement_flags_posn
S001 S 0.27218(11) 0.09075(4) 0.29482(4) 0.0180(2) Uani 1 1 d .
S002 S 0.93920(13) 0.71215(5) 0.26329(4) 0.0243(2) Uani 1 1 d .
O003 O 0.3216(3) 0.37112(11) 0.34487(10) 0.0167(5) Uani 1 1 d .
O004 O 0.0765(3) 0.05416(12) 0.27478(11) 0.0225(5) Uani 1 1 d .
O005 O 0.8444(3) 0.43033(11) 0.21442(10) 0.0206(5) Uani 1 1 d .
O006 O 0.3031(3) 0.10743(13) 0.36495(11) 0.0252(5) Uani 1 1 d .
O007 O 0.4291(3) 0.05270(13) 0.25912(12) 0.0257(6) Uani 1 1 d .
N008 N 0.8442(4) 0.41945(13) 0.31979(12) 0.0143(5) Uani 1 1 d .
O009 O 0.7709(4) 0.74952(13) 0.29121(12) 0.0284(6) Uani 1 1 d .
O00A O 1.1286(4) 0.74829(13) 0.28960(13) 0.0299(6) Uani 1 1 d .
O00B O 0.9307(4) 0.69343(13) 0.19094(12) 0.0347(6) Uani 1 1 d .
N00C N 0.3219(4) 0.38463(14) 0.24146(12) 0.0183(6) Uani 1 1 d .
N00D N -0.0935(4) -0.01301(15) 0.36706(13) 0.0195(6) Uani 1 1 d .
H00D H -0.0177 0.0082 0.3355 0.023 Uiso 1 1 calc R
N00E N 0.7073(5) -0.10442(15) 0.09095(14) 0.0292(7) Uani 1 1 d .
N00F N 0.7417(7) 0.07059(18) -0.00982(15) 0.0502(11) Uani 1 1 d .
N00G N 0.3555(5) 0.72408(17) 0.56985(14) 0.0299(7) Uani 1 1 d .
C00H C 0.7638(4) 0.15793(16) 0.18164(15) 0.0138(6) Uani 1 1 d .
C00I C 0.7905(4) 0.26080(16) 0.27377(14) 0.0122(6) Uani 1 1 d .
H00I H 0.7946 0.2798 0.3189 0.015 Uiso 1 1 calc R
N00J N 0.6077(5) 0.89909(16) 0.48349(14) 0.0277(7) Uani 1 1 d .
C00K C 0.3021(4) 0.30331(16) 0.30463(14) 0.0142(6) Uani 1 1 d .
C00L C 0.2830(4) 0.24854(16) 0.18776(15) 0.0157(6) Uani 1 1 d .
C00M C 0.7473(4) 0.07861(16) 0.16151(15) 0.0155(6) Uani 1 1 d .
H00M H 0.7451 0.0552 0.1961 0.019 Uiso 1 1 calc R
C00N C 0.2873(4) 0.23670(17) 0.32261(15) 0.0155(6) Uani 1 1 d .
H00N H 0.2861 0.2336 0.3664 0.019 Uiso 1 1 calc R
C00O C 0.7735(5) 0.20456(17) 0.13896(15) 0.0185(7) Uani 1 1 d .
H00O H 0.7655 0.1854 0.0938 0.022 Uiso 1 1 calc R
C00P C 0.8918(5) 0.55494(17) 0.37134(16) 0.0189(7) Uani 1 1 d .
C00Q C 0.8290(5) 0.38554(17) 0.25801(15) 0.0189(7) Uani 1 1 d .
C00R C 0.7948(5) 0.27880(17) 0.16258(16) 0.0197(7) Uani 1 1 d .
H00R H 0.8030 0.3097 0.1337 0.024 Uiso 1 1 calc R
C00S C 0.7346(4) 0.03360(17) 0.10123(15) 0.0186(7) Uani 1 1 d .
C00T C 0.2783(5) 0.25269(18) 0.12134(15) 0.0206(7) Uani 1 1 d .
H00T H 0.2865 0.2978 0.1106 0.025 Uiso 1 1 calc R
C00U C 0.3345(4) 0.41660(17) 0.30289(15) 0.0175(7) Uani 1 1 d .
C00V C 0.3752(5) 0.52102(17) 0.39961(16) 0.0193(7) Uani 1 1 d .
H00V H 0.3617 0.4890 0.4273 0.023 Uiso 1 1 calc R
C00W C 0.4106(5) 0.74173(17) 0.52461(17) 0.0207(7) Uani 1 1 d .
C00X C 0.8888(5) 0.55047(18) 0.43744(16) 0.0193(7) Uani 1 1 d .
H00X H 0.8715 0.5054 0.4480 0.023 Uiso 1 1 calc R
C00Y C 0.7167(5) -0.04379(18) 0.09557(15) 0.0204(7) Uani 1 1 d .
C00Z C 0.2507(4) 0.11680(17) 0.15261(15) 0.0159(6) Uani 1 1 d .
H00Z H 0.2425 0.0709 0.1619 0.019 Uiso 1 1 calc R
C010 C 0.3008(4) 0.31080(16) 0.24069(15) 0.0148(6) Uani 1 1 d .
C011 C 0.2747(4) 0.17612(16) 0.27222(15) 0.0145(6) Uani 1 1 d .
C012 C 0.7387(6) 0.05586(18) 0.03955(18) 0.0298(8) Uani 1 1 d .
C013 C 0.7711(4) 0.18672(16) 0.24896(15) 0.0143(6) Uani 1 1 d .
H013 H 0.7628 0.1557 0.2777 0.017 Uiso 1 1 calc R
C014 C 0.8041(4) 0.30711(16) 0.23040(15) 0.0158(6) Uani 1 1 d .
C015 C 0.2684(4) 0.17973(16) 0.20469(15) 0.0153(6) Uani 1 1 d .
C016 C 0.2454(5) 0.12351(17) 0.08812(16) 0.0227(7) Uani 1 1 d .
H016 H 0.2305 0.0819 0.0543 0.027 Uiso 1 1 calc R
C017 C 0.4068(5) 0.59515(17) 0.42593(16) 0.0193(7) Uani 1 1 d .
H017 H 0.4118 0.6125 0.4713 0.023 Uiso 1 1 calc R
C018 C 0.8690(5) 0.49260(17) 0.31859(16) 0.0196(7) Uani 1 1 d .
C019 C 0.9177(5) 0.62381(17) 0.35360(16) 0.0206(7) Uani 1 1 d .
C01A C 0.9113(5) 0.61239(19) 0.48633(17) 0.0232(7) Uani 1 1 d .
H01A H 0.9098 0.6092 0.5301 0.028 Uiso 1 1 calc R
C01B C 0.4773(4) 0.76501(17) 0.46709(15) 0.0174(7) Uani 1 1 d .
C01C C 0.5479(5) 0.84032(19) 0.47691(15) 0.0206(7) Uani 1 1 d .
C01D C 0.9368(5) 0.68063(18) 0.47073(17) 0.0228(7) Uani 1 1 d .
H01D H 0.9501 0.7223 0.5044 0.027 Uiso 1 1 calc R
C01E C 0.4311(5) 0.64386(18) 0.38522(16) 0.0202(7) Uani 1 1 d .
C01F C -0.0820(5) 0.04126(18) 0.43081(18) 0.0265(8) Uani 1 1 d .
H01B H 0.0524 0.0468 0.4479 0.032 Uiso 1 1 calc R
H01C H -0.1645 0.0225 0.4617 0.032 Uiso 1 1 calc R
C01G C 0.4773(5) 0.72156(18) 0.40635(15) 0.0195(7) Uani 1 1 d .
H01G H 0.5122 0.7449 0.3730 0.023 Uiso 1 1 calc R
C01H C 0.9422(5) 0.68693(17) 0.40739(17) 0.0210(7) Uani 1 1 d .
H01H H 0.9620 0.7328 0.3985 0.025 Uiso 1 1 calc R
C01I C 0.3637(5) 0.49475(17) 0.33192(16) 0.0207(7) Uani 1 1 d .
C01J C 0.8714(5) 0.49918(17) 0.25393(16) 0.0197(7) Uani 1 1 d .
C01K C 0.2619(5) 0.19114(18) 0.07297(16) 0.0232(7) Uani 1 1 d .
H01K H 0.2618 0.1944 0.0292 0.028 Uiso 1 1 calc R
C01L C 0.9168(4) 0.62618(17) 0.28649(16) 0.0189(7) Uani 1 1 d .
C01M C -0.3002(5) -0.0307(2) 0.34031(16) 0.0243(8) Uani 1 1 d .
H01E H -0.3735 -0.0581 0.3674 0.029 Uiso 1 1 calc R
H01F H -0.3627 0.0141 0.3424 0.029 Uiso 1 1 calc R
C01N C -0.1435(6) 0.11427(19) 0.42741(18) 0.0291(8) Uani 1 1 d .
H01I H -0.0689 0.1321 0.3948 0.044 Uiso 1 1 calc GR
H01J H -0.1200 0.1473 0.4694 0.044 Uiso 1 1 calc GR
H01L H -0.2811 0.1105 0.4158 0.044 Uiso 1 1 calc GR
C01O C 0.3839(5) 0.54240(19) 0.29052(18) 0.0252(8) Uani 1 1 d .
H01O H 0.3743 0.5249 0.2452 0.030 Uiso 1 1 calc R
C01P C 0.4183(5) 0.61635(18) 0.31695(17) 0.0227(7) Uani 1 1 d .
H01P H 0.4332 0.6481 0.2890 0.027 Uiso 1 1 calc R
C01Q C -0.0013(5) -0.08195(18) 0.37280(17) 0.0238(7) Uani 1 1 d .
H01M H -0.0475 -0.0961 0.4122 0.029 Uiso 1 1 calc R
H01N H -0.0444 -0.1207 0.3354 0.029 Uiso 1 1 calc R
C01S C 0.8955(5) 0.56510(17) 0.23569(16) 0.0212(7) Uani 1 1 d .
H01S H 0.8972 0.5680 0.1919 0.025 Uiso 1 1 calc R
C01T C 0.2211(5) -0.07310(19) 0.37564(18) 0.0254(8) Uani 1 1 d .
H01Q H 0.2678 -0.0590 0.3368 0.038 Uiso 1 1 calc GR
H01R H 0.2719 -0.1183 0.3781 0.038 Uiso 1 1 calc GR
H01T H 0.2649 -0.0364 0.4138 0.038 Uiso 1 1 calc GR
C01U C -0.3076(6) -0.0738(2) 0.27082(17) 0.0293(8) Uani 1 1 d .
H01U H -0.2190 -0.0504 0.2452 0.044 Uiso 1 1 calc GR
H01V H -0.4391 -0.0768 0.2530 0.044 Uiso 1 1 calc GR
H01W H -0.2695 -0.1218 0.2696 0.044 Uiso 1 1 calc GR
loop_
_atom_site_aniso_label
_atom_site_aniso_U_11
_atom_site_aniso_U_22
_atom_site_aniso_U_33
_atom_site_aniso_U_23
_atom_site_aniso_U_13
_atom_site_aniso_U_12
S001 0.0120(4) 0.0177(4) 0.0269(5) 0.0113(3) -0.0007(3) -0.0008(3)
S002 0.0272(5) 0.0176(4) 0.0296(5) 0.0072(3) 0.0055(4) 0.0051(4)
O003 0.0158(11) 0.0155(11) 0.0155(11) -0.0023(9) -0.0012(8) -0.0020(9)
O004 0.0163(12) 0.0178(12) 0.0335(14) 0.0093(10) -0.0023(10) -0.0076(10)
O005 0.0327(13) 0.0139(11) 0.0151(11) 0.0012(9) 0.0056(9) 0.0070(10)
O006 0.0247(13) 0.0289(13) 0.0271(13) 0.0181(11) -0.0030(10) -0.0008(11)
O007 0.0160(12) 0.0267(13) 0.0405(15) 0.0187(11) 0.0024(10) 0.0066(10)
N008 0.0136(12) 0.0102(12) 0.0191(14) 0.0035(10) 0.0018(10) 0.0002(10)
O009 0.0330(14) 0.0200(12) 0.0350(14) 0.0103(10) 0.0112(11) 0.0059(11)
O00A 0.0274(14) 0.0190(13) 0.0438(16) 0.0103(11) 0.0068(11) -0.0054(11)
O00B 0.0525(18) 0.0217(13) 0.0315(15) 0.0091(11) 0.0070(12) 0.0028(12)
N00C 0.0225(14) 0.0162(14) 0.0164(14) 0.0030(11) 0.0063(11) 0.0035(11)
N00D 0.0139(13) 0.0246(15) 0.0203(14) 0.0048(11) -0.0005(10) 0.0044(11)
N00E 0.049(2) 0.0136(15) 0.0211(16) -0.0026(12) 0.0065(13) -0.0024(14)
N00F 0.112(3) 0.0229(17) 0.0135(17) -0.0004(13) -0.0013(18) 0.005(2)
N00G 0.0397(19) 0.0290(17) 0.0172(16) -0.0009(13) -0.0005(13) -0.0029(15)
C00H 0.0122(14) 0.0084(14) 0.0180(16) -0.0018(12) -0.0002(11) -0.0019(12)
C00I 0.0093(14) 0.0115(14) 0.0134(15) -0.0027(11) 0.0007(11) 0.0014(12)
N00J 0.0358(18) 0.0216(16) 0.0234(16) 0.0031(12) -0.0047(13) -0.0061(14)
C00K 0.0120(14) 0.0153(15) 0.0140(15) 0.0005(12) -0.0013(11) 0.0013(12)
C00L 0.0147(15) 0.0138(15) 0.0173(16) 0.0001(12) -0.0011(12) 0.0035(12)
C00M 0.0124(15) 0.0156(16) 0.0174(16) 0.0009(12) -0.0017(12) 0.0022(12)
C00N 0.0114(14) 0.0212(17) 0.0146(16) 0.0059(13) -0.0022(11) -0.0003(13)
C00O 0.0206(16) 0.0185(16) 0.0138(16) -0.0029(12) -0.0021(12) 0.0068(13)
C00P 0.0173(16) 0.0144(16) 0.0243(18) 0.0034(13) 0.0022(13) -0.0004(13)
C00Q 0.0238(17) 0.0150(16) 0.0196(17) 0.0069(13) 0.0017(13) 0.0037(14)
C00R 0.0230(17) 0.0136(16) 0.0246(18) 0.0072(13) 0.0027(13) 0.0050(13)
C00S 0.0149(16) 0.0171(17) 0.0229(18) 0.0040(13) 0.0010(12) -0.0024(13)
C00T 0.0326(19) 0.0192(17) 0.0107(15) 0.0010(13) -0.0001(13) 0.0134(15)
C00U 0.0123(15) 0.0164(16) 0.0223(18) 0.0011(13) 0.0058(12) 0.0020(13)
C00V 0.0158(16) 0.0152(16) 0.0259(18) 0.0038(13) 0.0028(13) -0.0022(13)
C00W 0.0212(17) 0.0141(16) 0.0228(18) -0.0032(13) -0.0041(14) -0.0017(14)
C00X 0.0141(15) 0.0191(17) 0.0252(18) 0.0062(14) 0.0036(13) -0.0001(13)
C00Y 0.0244(18) 0.0230(19) 0.0114(16) -0.0008(13) 0.0032(13) 0.0002(14)
C00Z 0.0102(14) 0.0132(15) 0.0209(17) -0.0031(12) -0.0046(12) 0.0007(12)
C010 0.0128(15) 0.0099(15) 0.0193(16) -0.0013(12) -0.0014(12) 0.0003(12)
C011 0.0113(14) 0.0131(15) 0.0199(16) 0.0059(12) -0.0016(11) -0.0001(12)
C012 0.046(2) 0.0125(17) 0.028(2) -0.0009(14) -0.0014(17) 0.0035(16)
C013 0.0075(14) 0.0149(15) 0.0204(16) 0.0035(12) 0.0000(11) 0.0009(12)
C014 0.0092(14) 0.0143(15) 0.0236(17) 0.0029(13) 0.0032(12) 0.0031(12)
C015 0.0097(14) 0.0152(15) 0.0207(16) 0.0028(12) -0.0008(11) 0.0037(12)
C016 0.0311(19) 0.0133(16) 0.0178(17) -0.0095(13) -0.0019(14) 0.0039(14)
C017 0.0189(16) 0.0173(16) 0.0173(16) -0.0042(13) 0.0031(12) -0.0030(13)
C018 0.0177(16) 0.0127(16) 0.0286(19) 0.0036(13) 0.0058(13) 0.0060(13)
C019 0.0240(17) 0.0162(16) 0.0222(18) 0.0037(13) 0.0102(13) 0.0068(14)
C01A 0.0201(17) 0.0247(18) 0.0218(18) -0.0003(14) 0.0027(13) -0.0010(14)
C01B 0.0155(16) 0.0201(17) 0.0153(16) 0.0019(13) -0.0010(12) 0.0003(13)
C01C 0.0183(16) 0.0261(19) 0.0170(17) 0.0039(14) 0.0016(12) 0.0011(14)
C01D 0.0146(16) 0.0171(17) 0.032(2) -0.0034(14) -0.0009(13) -0.0002(13)
C01E 0.0161(16) 0.0227(17) 0.0219(18) 0.0035(14) 0.0025(13) 0.0072(13)
C01F 0.0254(19) 0.0179(17) 0.034(2) 0.0016(14) 0.0100(15) 0.0014(15)
C01G 0.0169(16) 0.0232(17) 0.0182(17) 0.0036(13) -0.0007(12) 0.0037(14)
C01H 0.0158(16) 0.0090(15) 0.036(2) 0.0012(13) 0.0029(14) -0.0005(13)
C01I 0.0149(16) 0.0179(17) 0.0268(18) 0.0003(14) 0.0004(13) -0.0002(13)
C01J 0.0190(16) 0.0162(16) 0.0227(18) 0.0008(13) 0.0058(13) 0.0034(13)
C01K 0.0298(19) 0.0243(18) 0.0161(17) 0.0048(14) 0.0012(14) 0.0065(15)
C01L 0.0132(15) 0.0144(16) 0.0292(19) 0.0049(13) 0.0026(13) 0.0008(13)
C01M 0.0152(16) 0.032(2) 0.0276(19) 0.0108(15) 0.0028(13) 0.0035(15)
C01N 0.032(2) 0.0210(18) 0.031(2) -0.0010(15) 0.0101(15) 0.0046(16)
C01O 0.0235(18) 0.0208(18) 0.0288(19) -0.0001(14) 0.0039(14) 0.0033(15)
C01P 0.0193(17) 0.0214(18) 0.0273(19) 0.0062(14) 0.0017(13) -0.0001(14)
C01Q 0.0261(18) 0.0178(17) 0.0289(19) 0.0063(14) 0.0012(14) 0.0071(14)
C01S 0.0221(17) 0.0168(17) 0.0260(19) 0.0074(14) 0.0077(14) 0.0007(14)
C01T 0.0202(17) 0.0210(18) 0.038(2) 0.0127(15) 0.0002(14) 0.0057(14)
C01U 0.033(2) 0.0250(19) 0.031(2) 0.0064(15) -0.0065(15) 0.0053(16)
loop_
_atom_type_symbol
_atom_type_description
_atom_type_scat_dispersion_real
_atom_type_scat_dispersion_imag
_atom_type_scat_source
C C 0.0033 0.0016 'International Tables Vol C Tables 4.2.6.8 and 6.1.1.4'
H H 0.0000 0.0000 'International Tables Vol C Tables 4.2.6.8 and 6.1.1.4'
N N 0.0061 0.0033 'International Tables Vol C Tables 4.2.6.8 and 6.1.1.4'
O O 0.0106 0.0060 'International Tables Vol C Tables 4.2.6.8 and 6.1.1.4'
S S 0.1246 0.1234 'International Tables Vol C Tables 4.2.6.8 and 6.1.1.4'
loop_
_geom_angle_atom_site_label_1
_geom_angle_atom_site_label_2
_geom_angle_atom_site_label_3
_geom_angle
O004 S001 C011 105.80(13)
O006 S001 O004 112.06(14)
O006 S001 O007 113.45(14)
O006 S001 C011 105.95(14)
O007 S001 O004 112.66(15)
O007 S001 C011 106.20(14)
O009 S002 O00A 114.13(16)
O009 S002 O00B 112.59(15)
O009 S002 C01L 105.18(14)
O00A S002 O00B 112.34(16)
O00A S002 C01L 106.87(14)
O00B S002 C01L 104.83(15)
C00U O003 C00K 104.2(2)
C01J O005 C00Q 104.2(2)
C00Q N008 C018 104.5(2)
C00U N00C C010 104.7(2)
C01F N00D H00D 107.6
C01F N00D C01M 112.3(3)
C01F N00D C01Q 111.2(2)
C01M N00D H00D 107.6
C01M N00D C01Q 110.2(3)
C01Q N00D H00D 107.6
C00O C00H C00M 125.1(3)
C013 C00H C00M 115.5(3)
C013 C00H C00O 119.4(3)
C013 C00I H00I 120.3
C013 C00I C014 119.3(3)
C014 C00I H00I 120.3
O003 C00K C00N 127.9(3)
O003 C00K C010 108.0(3)
C010 C00K C00N 124.1(3)
C00T C00L C010 123.1(3)
C00T C00L C015 120.3(3)
C010 C00L C015 116.7(3)
C00H C00M H00M 114.5
C00S C00M C00H 131.0(3)
C00S C00M H00M 114.5
C00K C00N H00N 121.9
C011 C00N C00K 116.2(3)
C011 C00N H00N 121.9
C00H C00O H00O 119.5
C00R C00O C00H 120.9(3)
C00R C00O H00O 119.5
C00X C00P C018 122.6(3)
C00X C00P C019 121.1(3)
C018 C00P C019 116.3(3)
O005 C00Q C014 117.4(3)
N008 C00Q O005 114.5(3)
N008 C00Q C014 128.0(3)
C00O C00R H00R 120.4
C00O C00R C014 119.2(3)
C014 C00R H00R 120.4
C00M C00S C00Y 119.3(3)
C00M C00S C012 125.6(3)
C00Y C00S C012 115.1(3)
C00L C00T H00T 119.9
C01K C00T C00L 120.2(3)
C01K C00T H00T 119.9
O003 C00U C01I 117.4(3)
N00C C00U O003 114.8(3)
N00C C00U C01I 127.8(3)
C017 C00V H00V 120.0
C017 C00V C01I 120.0(3)
C01I C00V H00V 120.0
N00G C00W C01B 178.8(4)
C00P C00X H00X 120.0
C01A C00X C00P 120.1(3)
C01A C00X H00X 120.0
N00E C00Y C00S 178.4(4)
C015 C00Z H00Z 120.0
C016 C00Z H00Z 120.0
C016 C00Z C015 120.1(3)
N00C C010 C00L 131.3(3)
C00K C010 N00C 108.3(2)
C00K C010 C00L 120.4(3)
C00N C011 S001 116.5(2)
C00N C011 C015 122.7(3)
C015 C011 S001 120.8(2)
N00F C012 C00S 177.4(4)
C00H C013 H013 119.6
C00I C013 C00H 120.8(3)
C00I C013 H013 119.6
C00I C014 C00Q 118.3(3)
C00R C014 C00I 120.4(3)
C00R C014 C00Q 121.3(3)
C00L C015 C011 119.8(3)
C00Z C015 C00L 117.6(3)
C00Z C015 C011 122.5(3)
C00Z C016 H016 119.4
C00Z C016 C01K 121.1(3)
C01K C016 H016 119.4
C00V C017 H017 119.6
C00V C017 C01E 120.8(3)
C01E C017 H017 119.6
N008 C018 C00P 129.9(3)
C01J C018 N008 109.2(3)
C01J C018 C00P 120.9(3)
C00P C019 C01H 116.1(3)
C01L C019 C00P 119.5(3)
C01L C019 C01H 124.4(3)
C00X C01A H01A 119.9
C00X C01A C01D 120.3(3)
C01D C01A H01A 119.9
C00W C01B C01C 116.1(3)
C01G C01B C00W 124.5(3)
C01G C01B C01C 119.4(3)
N00J C01C C01B 178.1(4)
C01A C01D H01D 119.4
C01H C01D C01A 121.2(3)
C01H C01D H01D 119.4
C017 C01E C01G 126.2(3)
C017 C01E C01P 118.4(3)
C01P C01E C01G 115.4(3)
N00D C01F H01B 108.6
N00D C01F H01C 108.6
N00D C01F C01N 114.7(3)
H01B C01F H01C 107.6
C01N C01F H01B 108.6
C01N C01F H01C 108.6
C01B C01G C01E 129.6(3)
C01B C01G H01G 115.2
C01E C01G H01G 115.2
C019 C01H H01H 119.4
C01D C01H C019 121.2(3)
C01D C01H H01H 119.4
C00V C01I C00U 121.0(3)
C01O C01I C00U 118.8(3)
C01O C01I C00V 120.1(3)
O005 C01J C018 107.6(3)
O005 C01J C01S 128.7(3)
C018 C01J C01S 123.7(3)
C00T C01K C016 120.6(3)
C00T C01K H01K 119.7
C016 C01K H01K 119.7
C019 C01L S002 120.2(2)
C01S C01L S002 116.2(2)
C01S C01L C019 123.6(3)
N00D C01M H01E 109.2
N00D C01M H01F 109.2
H01E C01M H01F 107.9
C01U C01M N00D 112.0(3)
C01U C01M H01E 109.2
C01U C01M H01F 109.2
C01F C01N H01I 109.5
C01F C01N H01J 109.5
C01F C01N H01L 109.5
H01I C01N H01J 109.5
H01I C01N H01L 109.5
H01J C01N H01L 109.5
C01I C01O H01O 120.1
C01I C01O C01P 119.7(3)
C01P C01O H01O 120.1
C01E C01P H01P 119.5
C01O C01P C01E 120.9(3)
C01O C01P H01P 119.5
N00D C01Q H01M 109.0
N00D C01Q H01N 109.0
H01M C01Q H01N 107.8
C01T C01Q N00D 112.8(3)
C01T C01Q H01M 109.0
C01T C01Q H01N 109.0
C01J C01S H01S 122.0
C01L C01S C01J 116.0(3)
C01L C01S H01S 122.0
C01Q C01T H01Q 109.5
C01Q C01T H01R 109.5
C01Q C01T H01T 109.5
H01Q C01T H01R 109.5
H01Q C01T H01T 109.5
H01R C01T H01T 109.5
C01M C01U H01U 109.5
C01M C01U H01V 109.5
C01M C01U H01W 109.5
H01U C01U H01V 109.5
H01U C01U H01W 109.5
H01V C01U H01W 109.5
loop_
_geom_bond_atom_site_label_1
_geom_bond_atom_site_label_2
_geom_bond_distance
S001 O004 1.469(2)
S001 O006 1.438(2)
S001 O007 1.451(2)
S001 C011 1.785(3)
S002 O009 1.450(3)
S002 O00A 1.458(3)
S002 O00B 1.472(3)
S002 C01L 1.799(3)
O003 C00K 1.364(4)
O003 C00U 1.361(4)
O005 C00Q 1.379(4)
O005 C01J 1.376(4)
N008 C00Q 1.305(4)
N008 C018 1.391(4)
N00C C00U 1.289(4)
N00C C010 1.393(4)
N00D H00D 0.9800
N00D C01F 1.485(4)
N00D C01M 1.497(4)
N00D C01Q 1.519(4)
N00E C00Y 1.128(4)
N00F C012 1.128(4)
N00G C00W 1.131(4)
C00H C00M 1.462(4)
C00H C00O 1.390(4)
C00H C013 1.388(4)
C00I H00I 0.9300
C00I C013 1.378(4)
C00I C014 1.397(4)
N00J C01C 1.135(4)
C00K C00N 1.394(4)
C00K C010 1.375(4)
C00L C00T 1.408(4)
C00L C010 1.420(4)
C00L C015 1.424(4)
C00M H00M 0.9300
C00M C00S 1.350(4)
C00N H00N 0.9300
C00N C011 1.368(4)
C00O H00O 0.9300
C00O C00R 1.378(4)
C00P C00X 1.403(4)
C00P C018 1.420(5)
C00P C019 1.435(4)
C00Q C014 1.464(4)
C00R H00R 0.9300
C00R C014 1.396(4)
C00S C00Y 1.441(4)
C00S C012 1.444(5)
C00T H00T 0.9300
C00T C01K 1.357(5)
C00U C01I 1.466(4)
C00V H00V 0.9300
C00V C017 1.388(4)
C00V C01I 1.389(5)
C00W C01B 1.438(5)
C00X H00X 0.9300
C00X C01A 1.368(5)
C00Z H00Z 0.9300
C00Z C015 1.418(4)
C00Z C016 1.383(4)
C011 C015 1.429(4)
C013 H013 0.9300
C016 H016 0.9300
C016 C01K 1.386(5)
C017 H017 0.9300
C017 C01E 1.393(5)
C018 C01J 1.385(4)
C019 C01H 1.443(5)
C019 C01L 1.413(4)
C01A H01A 0.9300
C01A C01D 1.403(5)
C01B C01C 1.441(5)
C01B C01G 1.348(4)
C01D H01D 0.9300
C01D C01H 1.357(5)
C01E C01G 1.449(5)
C01E C01P 1.403(5)
C01F H01B 0.9700
C01F H01C 0.9700
C01F C01N 1.492(5)
C01G H01G 0.9300
C01H H01H 0.9300
C01I C01O 1.386(5)
C01J C01S 1.386(4)
C01K H01K 0.9300
C01L C01S 1.380(5)
C01M H01E 0.9700
C01M H01F 0.9700
C01M C01U 1.495(5)
C01N H01I 0.9600
C01N H01J 0.9600
C01N H01L 0.9600
C01O H01O 0.9300
C01O C01P 1.387(5)
C01P H01P 0.9300
C01Q H01M 0.9700
C01Q H01N 0.9700
C01Q C01T 1.512(5)
C01S H01S 0.9300
C01T H01Q 0.9600
C01T H01R 0.9600
C01T H01T 0.9600
C01U H01U 0.9600
C01U H01V 0.9600
C01U H01W 0.9600
loop_
_geom_torsion_atom_site_label_1
_geom_torsion_atom_site_label_2
_geom_torsion_atom_site_label_3
_geom_torsion_atom_site_label_4
_geom_torsion
S001 C011 C015 C00L -176.1(2)
S001 C011 C015 C00Z 3.1(4)
S002 C01L C01S C01J -177.8(2)
O003 C00K C00N C011 -178.2(3)
O003 C00K C010 N00C 0.6(3)
O003 C00K C010 C00L 179.7(3)
O003 C00U C01I C00V -0.8(4)
O003 C00U C01I C01O 177.9(3)
O004 S001 C011 C00N 114.0(2)
O004 S001 C011 C015 -67.5(3)
O005 C00Q C014 C00I 179.3(3)
O005 C00Q C014 C00R -0.5(4)
O005 C01J C01S C01L 179.0(3)
O006 S001 C011 C00N -5.1(3)
O006 S001 C011 C015 173.4(2)
O007 S001 C011 C00N -126.1(2)
O007 S001 C011 C015 52.5(3)
N008 C00Q C014 C00I 1.3(5)
N008 C00Q C014 C00R -178.4(3)
N008 C018 C01J O005 1.1(3)
N008 C018 C01J C01S -179.4(3)
O009 S002 C01L C019 -60.5(3)
O009 S002 C01L C01S 118.2(3)
O00A S002 C01L C019 61.1(3)
O00A S002 C01L C01S -120.1(3)
O00B S002 C01L C019 -179.5(3)
O00B S002 C01L C01S -0.7(3)
N00C C00U C01I C00V -179.7(3)
N00C C00U C01I C01O -1.0(5)
C00H C00M C00S C00Y -179.2(3)
C00H C00M C00S C012 1.3(5)
C00H C00O C00R C014 -0.9(5)
C00K O003 C00U N00C 1.1(3)
C00K O003 C00U C01I -177.9(3)
C00K C00N C011 S001 176.0(2)
C00K C00N C011 C015 -2.5(4)
C00L C00T C01K C016 1.4(5)
C00M C00H C00O C00R -178.1(3)
C00M C00H C013 C00I 178.7(3)
C00N C00K C010 N00C -178.9(3)
C00N C00K C010 C00L 0.2(4)
C00N C011 C015 C00L 2.4(4)
C00N C011 C015 C00Z -178.5(3)
C00O C00H C00M C00S -1.2(5)
C00O C00H C013 C00I -0.9(4)
C00O C00R C014 C00I -0.4(4)
C00O C00R C014 C00Q 179.3(3)
C00P C00X C01A C01D 0.2(5)
C00P C018 C01J O005 -179.5(3)
C00P C018 C01J C01S 0.0(5)
C00P C019 C01H C01D -1.3(5)
C00P C019 C01L S002 177.5(2)
C00P C019 C01L C01S -1.1(5)
C00Q O005 C01J C018 -0.6(3)
C00Q O005 C01J C01S -180.0(3)
C00Q N008 C018 C00P 179.5(3)
C00Q N008 C018 C01J -1.2(3)
C00T C00L C010 N00C -1.9(5)
C00T C00L C010 C00K 179.2(3)
C00T C00L C015 C00Z 0.4(4)
C00T C00L C015 C011 179.6(3)
C00U O003 C00K C00N 178.5(3)
C00U O003 C00K C010 -1.0(3)
C00U N00C C010 C00K 0.1(3)
C00U N00C C010 C00L -178.9(3)
C00U C01I C01O C01P -177.8(3)
C00V C017 C01E C01G -175.8(3)
C00V C017 C01E C01P 1.4(5)
C00V C01I C01O C01P 0.9(5)
C00W C01B C01G C01E -6.1(5)
C00X C00P C018 N008 -1.1(5)
C00X C00P C018 C01J 179.6(3)
C00X C00P C019 C01H 0.7(4)
C00X C00P C019 C01L -179.0(3)
C00X C01A C01D C01H -0.9(5)
C00Z C016 C01K C00T -1.8(5)
C010 N00C C00U O003 -0.7(3)
C010 N00C C00U C01I 178.2(3)
C010 C00K C00N C011 1.3(4)
C010 C00L C00T C01K 179.7(3)
C010 C00L C015 C00Z -180.0(3)
C010 C00L C015 C011 -0.8(4)
C013 C00H C00M C00S 179.2(3)
C013 C00H C00O C00R 1.5(5)
C013 C00I C014 C00Q -178.7(3)
C013 C00I C014 C00R 1.0(4)
C014 C00I C013 C00H -0.4(4)
C015 C00L C00T C01K -0.7(5)
C015 C00L C010 N00C 178.5(3)
C015 C00L C010 C00K -0.4(4)
C015 C00Z C016 C01K 1.6(5)
C016 C00Z C015 C00L -0.9(4)
C016 C00Z C015 C011 -180.0(3)
C017 C00V C01I C00U 178.7(3)
C017 C00V C01I C01O 0.1(5)
C017 C01E C01G C01B -11.3(5)
C017 C01E C01P C01O -0.5(5)
C018 N008 C00Q O005 0.9(3)
C018 N008 C00Q C014 178.8(3)
C018 C00P C00X C01A -179.9(3)
C018 C00P C019 C01H -179.6(3)
C018 C00P C019 C01L 0.7(4)
C018 C01J C01S C01L -0.3(5)
C019 C00P C00X C01A -0.2(5)
C019 C00P C018 N008 179.1(3)
C019 C00P C018 C01J -0.2(4)
C019 C01L C01S C01J 0.9(5)
C01A C01D C01H C019 1.4(5)
C01C C01B C01G C01E 173.9(3)
C01F N00D C01M C01U 168.9(3)
C01F N00D C01Q C01T -75.4(3)
C01G C01E C01P C01O 177.0(3)
C01H C019 C01L S002 -2.2(4)
C01H C019 C01L C01S 179.2(3)
C01I C00V C017 C01E -1.2(5)
C01I C01O C01P C01E -0.7(5)
C01J O005 C00Q N008 -0.2(3)
C01J O005 C00Q C014 -178.4(3)
C01L C019 C01H C01D 178.4(3)
C01M N00D C01F C01N -64.1(4)
C01M N00D C01Q C01T 159.4(3)
C01P C01E C01G C01B 171.4(3)
C01Q N00D C01F C01N 171.8(3)
C01Q N00D C01M C01U -66.5(3)
loop_
_smtbx_masks_void_nr
_smtbx_masks_void_average_x
_smtbx_masks_void_average_y
_smtbx_masks_void_average_z
_smtbx_masks_void_volume
_smtbx_masks_void_count_electrons
1 -0.125 -0.500 0.000 652.3 382.5
