#------------------------------------------------------------------------------
#$Date: 2017-05-06 00:45:07 +0300 (Sat, 06 May 2017) $
#$Revision: 196331 $
#$URL: file:///home/coder/svn-repositories/cod/cif/1/54/53/1545339.cif $
#------------------------------------------------------------------------------
#
# This file is available in the Crystallography Open Database (COD),
# http://www.crystallography.net/
#
# All data on this site have been placed in the public domain by the
# contributors.
#
data_1545339
loop_
_publ_author_name
'S\/orensen, Mikkel A.'
'Weihe, H\/ogni'
'Vinum, Morten G.'
'Mortensen, Jesper S.'
'Doerrer, Linda H.'
'Bendix, Jesper'
_publ_section_title
;
 Imposing high-symmetry and tuneable geometry on lanthanide centres with
 chelating Pt and Pd metalloligands
;
_journal_issue                   5
_journal_name_full               'Chem. Sci.'
_journal_page_first              3566
_journal_paper_doi               10.1039/C7SC00135E
_journal_volume                  8
_journal_year                    2017
_chemical_formula_moiety         'C16 H24 Ho O8 Pt2 S8, C8 H20 N'
_chemical_formula_sum            'C24 H44 Ho N O8 Pt2 S8'
_chemical_formula_weight         1286.23
_space_group_crystal_system      tetragonal
_space_group_IT_number           124
_space_group_name_Hall           '-P 4 2c'
_space_group_name_H-M_alt        'P 4/m c c'
_symmetry_Int_Tables_number      124
_symmetry_space_group_name_Hall  '-P 4 2c'
_symmetry_space_group_name_H-M   'P 4/m c c'
_atom_sites_solution_primary     iterative
_audit_creation_date             2015-05-10
_audit_creation_method
;
Olex2 1.2
(compiled 2015.01.26 svn.r3150 for OlexSys, GUI svn.r4998)
;
_audit_update_record
;
2017-01-09 deposited with the CCDC.
2017-02-28 downloaded from the CCDC.
;
_cell_angle_alpha                90
_cell_angle_beta                 90
_cell_angle_gamma                90
_cell_formula_units_Z            2
_cell_length_a                   8.5991(3)
_cell_length_b                   8.5991(3)
_cell_length_c                   25.4694(9)
_cell_measurement_reflns_used    9913
_cell_measurement_temperature    122
_cell_measurement_theta_max      27.88
_cell_measurement_theta_min      2.37
_cell_volume                     1883.32(11)
_computing_molecular_graphics    'Olex2 (Dolomanov et al., 2009)'
_computing_publication_material  'Olex2 (Dolomanov et al., 2009)'
_computing_structure_refinement  'olex2.refine (Bourhis et al., 2015)'
_computing_structure_solution    'olex2.solve (Bourhis et al., 2015)'
_diffrn_ambient_temperature      122
_diffrn_measured_fraction_theta_full 0.9990
_diffrn_measured_fraction_theta_max 0.9991
_diffrn_measurement_device_type  'Bruker APEX-II CCD'
_diffrn_measurement_method       '\f and \w scans'
_diffrn_radiation_type           'Mo K\a'
_diffrn_radiation_wavelength     0.71073
_diffrn_reflns_av_R_equivalents  0.0475
_diffrn_reflns_av_unetI/netI     0.0147
_diffrn_reflns_limit_h_max       11
_diffrn_reflns_limit_h_min       -11
_diffrn_reflns_limit_k_max       11
_diffrn_reflns_limit_k_min       -11
_diffrn_reflns_limit_l_max       33
_diffrn_reflns_limit_l_min       -32
_diffrn_reflns_number            28578
_diffrn_reflns_theta_full        26.0000
_diffrn_reflns_theta_max         27.88
_diffrn_reflns_theta_min         2.37
_diffrn_standards_number         0
_exptl_absorpt_coefficient_mu    9.974
_exptl_absorpt_correction_T_max  0.7456
_exptl_absorpt_correction_T_min  0.5875
_exptl_absorpt_correction_type   multi-scan
_exptl_absorpt_process_details
;
SADABS-2012/1 (Bruker,2012) was used for absorption correction.
wR2(int) was 0.1078 before and 0.0572 after correction.
The Ratio of minimum to maximum transmission is 0.7880.
The \l/2 correction factor is 0.0000.
;
_exptl_crystal_colour            'clear light yellow'
_exptl_crystal_colour_lustre     clear
_exptl_crystal_colour_modifier   light
_exptl_crystal_colour_primary    yellow
_exptl_crystal_density_diffrn    2.2680
_exptl_crystal_description       plate
_exptl_crystal_F_000             1220
_exptl_crystal_size_max          0.1
_exptl_crystal_size_mid          0.1
_exptl_crystal_size_min          0.03
_refine_diff_density_max         0.9712
_refine_diff_density_min         -1.1316
_refine_diff_density_rms         0.2064
_refine_ls_d_res_high            0.7601
_refine_ls_d_res_low             8.5991
_refine_ls_goodness_of_fit_ref   1.1019
_refine_ls_hydrogen_treatment    mixed
_refine_ls_matrix_type           full
_refine_ls_number_constraints    4
_refine_ls_number_parameters     91
_refine_ls_number_reflns         1164
_refine_ls_number_restraints     3
_refine_ls_restrained_S_all      1.1004
_refine_ls_R_factor_all          0.0262
_refine_ls_R_factor_gt           0.0170
_refine_ls_shift/su_max          0.0000
_refine_ls_shift/su_mean         0.0000
_refine_ls_structure_factor_coef Fsqd
_refine_ls_weighting_details
'w=1/[\s^2^(Fo^2^)+(0.0068P)^2^+3.9762P] where P=(Fo^2^+2Fc^2^)/3'
_refine_ls_weighting_scheme      calc
_refine_ls_wR_factor_gt          0.0284
_refine_ls_wR_factor_ref         0.0306
_reflns_Friedel_coverage         0.0
_reflns_limit_h_max              11
_reflns_limit_h_min              0
_reflns_limit_k_max              8
_reflns_limit_k_min              0
_reflns_limit_l_max              32
_reflns_limit_l_min              0
_reflns_number_gt                961
_reflns_number_total             1164
_reflns_threshold_expression     I>=2u(I)
_cod_data_source_file            c7sc00135e2.cif
_cod_data_source_block           1Ho
_cod_depositor_comments
'Adding full bibliography for 1545338--1545364.cif.'
_cod_database_code               1545339
_olex2_refinement_description
;
1. Fixed Uiso
 At 1.5 times of:
  All C(H,H,H) groups
2. Restrained distances
 C4-H4a
 0.96 with sigma of 0.02
 C4-H4b
 0.96 with sigma of 0.02
 C4-H4c
 0.96 with sigma of 0.02
3. Others
 Fixed Sof: S1(0.5) O1(0.5) C3(0.5) O1a(0.5) S1a(0.5) H4a(0.435) H4b(0.465)
 H4c(0.6)
4.a Idealised Me refined as rotating group:
 C2(H2a,H2b,H2c)
;
_olex2_date_sample_data_collection 06.04.14
_olex2_submission_special_instructions 'No special instructions were received'
loop_
_space_group_symop_id
_space_group_symop_operation_xyz
1 x,y,z
2 -y,x,z
3 y,-x,z
4 x,-y,-z+1/2
5 -x,y,-z+1/2
6 -x,-y,z
7 y,x,-z+1/2
8 -y,-x,-z+1/2
9 -x,-y,-z
10 y,-x,-z
11 -y,x,-z
12 -x,y,z-1/2
13 x,-y,z-1/2
14 x,y,-z
15 -y,-x,z-1/2
16 y,x,z-1/2
loop_
_atom_site_label
_atom_site_type_symbol
_atom_site_fract_x
_atom_site_fract_y
_atom_site_fract_z
_atom_site_U_iso_or_equiv
_atom_site_adp_type
_atom_site_occupancy
_atom_site_site_symmetry_order
_atom_site_refinement_flags_posn
_atom_site_refinement_flags_adp
_atom_site_refinement_flags_occupancy
_atom_site_disorder_group
Pt1 Pt 0.5 0.5 0.604440(7) 0.01296(6) Uani 1.000000 4 S T P .
Ho1 Ho 0.5 0.5 0.75 0.01150(7) Uani 1.000000 8 S T P .
S1 S 0.2424(5) 0.5762(3) 0.60156(19) 0.0177(6) Uani 0.500000 1 . . . 1
N1 N 0.0 1.0 0.5 0.0099(11) Uani 1.000000 8 S T P .
C1 C 0.2025(3) 0.6271(3) 0.66697(11) 0.0192(6) Uani 1.000000 1 . . . .
C4 C 0.2892(5) 0.9301(7) 0.5 0.0362(13) Uani 1.000000 2 DS T P .
C2 C 0.0466(3) 0.7019(4) 0.67699(13) 0.0240(7) Uani 1.000000 1 . . . .
H2a H -0.0108(10) 0.710(2) 0.64387(18) 0.0359(10) Uiso 1.000000 1 GR . . .
H2b H -0.0129(10) 0.6381(13) 0.7018(6) 0.0359(10) Uiso 1.000000 1 GR . . .
H2c H 0.0621(3) 0.8059(10) 0.6919(7) 0.0359(10) Uiso 1.000000 1 GR . . .
O1 O 0.2991(5) 0.6311(5) 0.70146(18) 0.0155(9) Uani 0.500000 1 . . . 1
C3 C 0.1391(6) 0.9680(6) 0.5356(2) 0.0112(12) Uani 0.500000 1 . . . .
O1a O 0.2677(5) 0.5522(5) 0.70651(17) 0.0145(9) Uani 0.500000 1 . . . 2
S1a S 0.2620(4) 0.6247(3) 0.60612(18) 0.0158(6) Uani 0.500000 1 . . . 2
H4a H 0.274(7) 0.822(3) 0.5 0.047(18) Uiso 0.870000 2 DS T P .
H3 H 0.087(4) 0.871(4) 0.5568(12) 0.024(8) Uiso 1.000000 1 . . . .
H4b H 0.332(6) 1.031(3) 0.5 0.045(18) Uiso 0.930000 2 DS T P .
H4c H 0.355(6) 0.922(7) 0.5300(15) 0.045(19) Uiso 0.600000 1 D . . .
loop_
_atom_site_aniso_label
_atom_site_aniso_U_11
_atom_site_aniso_U_22
_atom_site_aniso_U_33
_atom_site_aniso_U_12
_atom_site_aniso_U_13
_atom_site_aniso_U_23
Pt1 0.01214(7) 0.01214(7) 0.01461(10) -0.000000 -0.000000 0.000000
Ho1 0.00900(9) 0.00900(9) 0.01650(15) -0.000000 -0.000000 0.000000
S1 0.0157(11) 0.0203(15) 0.0172(11) 0.0018(12) -0.0030(8) 0.0028(14)
N1 0.0089(15) 0.0089(15) 0.012(3) -0.000000 -0.000000 0.000000
C1 0.0139(14) 0.0197(15) 0.0241(15) 0.0002(11) -0.0051(12) -0.0039(13)
C4 0.009(2) 0.027(3) 0.073(4) 0.002(2) -0.000000 0.000000
C2 0.0131(13) 0.0226(15) 0.0362(18) 0.0038(11) -0.0002(12) -0.0035(14)
O1 0.014(2) 0.016(2) 0.016(2) 0.0023(19) -0.0044(17) 0.000(2)
C3 0.009(2) 0.013(3) 0.012(2) -0.001(2) -0.0045(19) 0.0018(19)
O1a 0.013(2) 0.018(2) 0.013(2) 0.0013(18) -0.0025(17) 0.002(2)
S1a 0.0140(12) 0.0180(14) 0.0153(11) 0.0049(11) -0.0008(9) 0.0063(13)
loop_
_atom_type_symbol
_atom_type_scat_dispersion_real
_atom_type_scat_dispersion_imag
_atom_type_scat_Cromer_Mann_a1
_atom_type_scat_Cromer_Mann_a2
_atom_type_scat_Cromer_Mann_a3
_atom_type_scat_Cromer_Mann_a4
_atom_type_scat_Cromer_Mann_b1
_atom_type_scat_Cromer_Mann_b2
_atom_type_scat_Cromer_Mann_b3
_atom_type_scat_Cromer_Mann_b4
_atom_type_scat_Cromer_Mann_c
_atom_type_scat_source
_atom_type_scat_dispersion_source
C 0.00347 0.00161 2.31000 1.02000 1.58860 0.86500 20.84390 10.20750 0.56870
51.65120 0.215599998832
'International Tables Volume C Table 6.1.1.4 (pp. 500-502)'
'Henke, Gullikson and Davis, At. Data and Nucl. Data Tables, 1993, 54, 2'
Pt -1.63788 8.57892 27.00590 17.76390 15.71310 5.78370 1.51293 8.81174 0.42459
38.61030 11.6883001328
'International Tables Volume C Table 6.1.1.4 (pp. 500-502)'
'Henke, Gullikson and Davis, At. Data and Nucl. Data Tables, 1993, 54, 2'
H 0.00000 0.00000 0.49300 0.32291 0.14019 0.04081 10.51090 26.12570 3.14236
57.79970 0.0030380000826
'International Tables Volume C Table 6.1.1.4 (pp. 500-502)'
'Henke, Gullikson and Davis, At. Data and Nucl. Data Tables, 1993, 54, 2'
O 0.01158 0.00611 3.04850 2.28680 1.54630 0.86700 13.27710 5.70110 0.32390
32.90890 0.250800013542
'International Tables Volume C Table 6.1.1.4 (pp. 500-502)'
'Henke, Gullikson and Davis, At. Data and Nucl. Data Tables, 1993, 54, 2'
N 0.00653 0.00323 12.21260 3.13220 2.01250 1.16630 0.00570 9.89330 28.99750
0.58260 -11.5290002823
'International Tables Volume C Table 6.1.1.4 (pp. 500-502)'
'Henke, Gullikson and Davis, At. Data and Nucl. Data Tables, 1993, 54, 2'
S 0.12424 0.12443 6.90530 5.20340 1.43790 1.58630 1.46790 22.21510 0.25360
56.17200 0.866900026798
'International Tables Volume C Table 6.1.1.4 (pp. 500-502)'
'Henke, Gullikson and Davis, At. Data and Nucl. Data Tables, 1993, 54, 2'
Ho -0.01807 5.00960 26.90490 17.29400 14.55830 3.63837 2.07051 0.19794 11.44070
92.65660 4.56795978546
'International Tables Volume C Table 6.1.1.4 (pp. 500-502)'
'Henke, Gullikson and Davis, At. Data and Nucl. Data Tables, 1993, 54, 2'
loop_
_geom_angle_atom_site_label_1
_geom_angle_atom_site_label_2
_geom_angle_atom_site_label_3
_geom_angle
_geom_angle_site_symmetry_1
_geom_angle_site_symmetry_3
S1 Pt1 S1 176.4(2) . 6_665
S1 Pt1 S1 89.9 2_655 .
S1 Pt1 S1 89.9 2_655 6_665
S1 Pt1 S1 89.9 3_565 6_665
S1 Pt1 S1 89.9 3_565 .
S1 Pt1 S1 176.4(2) 2_655 3_565
S1a Pt1 S1a 177.9(2) . 6_665
S1a Pt1 S1a 90.0 2_655 .
S1a Pt1 S1a 90.0 2_655 6_665
S1a Pt1 S1a 90.0 3_565 6_665
S1a Pt1 S1a 90.0 3_565 .
S1a Pt1 S1a 177.9(2) 2_655 3_565
O1 Ho1 O1 74.68(10) 6_665 2_655
O1 Ho1 O1 65.8(2) 4_566 2_655
O1 Ho1 O1 74.68(10) 8_666 4_566
O1 Ho1 O1 124.1(2) 6_665 4_566
O1 Ho1 O1 88.2(2) 6_665 5_656
O1 Ho1 O1 159.7(2) 7_556 .
O1 Ho1 O1 118.1(2) 8_666 7_556
O1 Ho1 O1 124.1(2) 7_556 3_565
O1 Ho1 O1 159.7(2) 4_566 3_565
O1 Ho1 O1 65.8(2) 7_556 6_665
O1 Ho1 O1 118.1(2) 6_665 .
O1 Ho1 O1 124.1(2) 8_666 2_655
O1 Ho1 O1 74.68(10) 6_665 3_565
O1 Ho1 O1 124.1(2) . 5_656
O1 Ho1 O1 74.68(10) 7_556 5_656
O1 Ho1 O1 159.7(2) 2_655 5_656
O1 Ho1 O1 88.2(2) 7_556 2_655
O1 Ho1 O1 74.68(10) 2_655 .
O1 Ho1 O1 74.68(10) 7_556 4_566
O1 Ho1 O1 65.8(2) 3_565 5_656
O1 Ho1 O1 65.8(2) 8_666 .
O1 Ho1 O1 74.68(10) 3_565 .
O1 Ho1 O1 88.2(2) 8_666 3_565
O1 Ho1 O1 118.1(2) 3_565 2_655
O1 Ho1 O1 159.7(2) 8_666 6_665
O1 Ho1 O1 118.1(2) 4_566 5_656
O1 Ho1 O1 88.2(2) 4_566 .
O1 Ho1 O1 74.68(10) 8_666 5_656
O1a Ho1 O1a 157.8(2) . 5_656
O1a Ho1 O1a 123.9(2) 7_556 .
O1a Ho1 O1a 61.8(2) 8_666 3_565
O1a Ho1 O1a 123.9(2) 2_655 5_656
O1a Ho1 O1a 84.0(2) 7_556 6_665
O1a Ho1 O1a 76.91(9) 2_655 .
O1a Ho1 O1a 157.8(2) 6_665 4_566
O1a Ho1 O1a 84.0(2) 3_565 5_656
O1a Ho1 O1a 157.8(2) 7_556 3_565
O1a Ho1 O1a 76.91(9) 3_565 .
O1a Ho1 O1a 84.0(2) 8_666 .
O1a Ho1 O1a 123.2(2) 3_565 2_655
O1a Ho1 O1a 123.9(2) 8_666 6_665
O1a Ho1 O1a 123.2(2) 4_566 5_656
O1a Ho1 O1a 76.91(9) 7_556 5_656
O1a Ho1 O1a 61.8(2) 4_566 .
O1a Ho1 O1a 61.8(2) 7_556 2_655
O1a Ho1 O1a 84.0(2) 4_566 2_655
O1a Ho1 O1a 76.91(9) 7_556 4_566
O1a Ho1 O1a 123.9(2) 4_566 3_565
O1a Ho1 O1a 76.91(9) 8_666 5_656
O1a Ho1 O1a 61.8(2) 6_665 5_656
O1a Ho1 O1a 157.8(2) 8_666 2_655
O1a Ho1 O1a 123.2(2) 6_665 .
O1a Ho1 O1a 76.91(9) 8_666 4_566
O1a Ho1 O1a 76.91(9) 6_665 2_655
O1a Ho1 O1a 76.91(9) 6_665 3_565
O1a Ho1 O1a 123.2(2) 8_666 7_556
C1 S1 Pt1 103.1(2) . 6_665
C3 N1 C3 110.7(2) 11_666 .
C3 N1 C3 72.9(4) 10_466 3_465
C3 N1 C3 72.9(4) . 14_556
C3 N1 C3 69.3(2) 11_666 9_576
C3 N1 C3 180.0 6_575 14_556
C3 N1 C3 110.7(2) 9_576 3_465
C3 N1 C3 107.1(4) 6_575 .
C3 N1 C3 180.0 11_666 3_465
C3 N1 C3 110.7(2) 3_465 14_556
C3 N1 C3 110.7(2) 10_466 .
C3 N1 C3 69.3(2) 3_465 .
C3 N1 C3 69.3(2) 10_466 9_576
C3 N1 C3 69.3(2) 3_465 6_575
C3 N1 C3 110.7(2) 9_576 2_665
C3 N1 C3 110.7(2) 2_665 14_556
C3 N1 C3 110.7(2) 11_666 6_575
C3 N1 C3 69.3(2) 2_665 .
C3 N1 C3 72.9(4) 11_666 2_665
C3 N1 C3 69.3(2) 2_665 6_575
C3 N1 C3 69.3(2) 10_466 14_556
C3 N1 C3 107.1(4) 2_665 3_465
C3 N1 C3 110.7(2) 10_466 6_575
C3 N1 C3 107.1(4) 9_576 14_556
C3 N1 C3 180.0 10_466 2_665
C3 N1 C3 180.0 9_576 .
C3 N1 C3 107.1(4) 10_466 11_666
C3 N1 C3 72.9(4) 9_576 6_575
C3 N1 C3 69.3(2) 11_666 14_556
O1 C1 S1 124.2(3) . .
S1a C1 O1a 125.9(3) . .
C3 C4 C3 68.5(4) . 14_556
H4a C4 C3 95(3) . 14_556
H4a C4 C3 95(3) . .
H4b C4 C3 97(3) . 14_556
H4b C4 C3 97(3) . .
H4b C4 H4a 165(5) . .
H4c C4 C3 92(4) 14_556 14_556
H4c C4 C3 92(4) . .
H4c C4 C3 160(4) 14_556 .
H4c C4 C3 160(4) . 14_556
H4c C4 H4a 91(4) 14_556 .
H4c C4 H4a 91(4) . .
H4c C4 H4b 80(4) . .
H4c C4 H4b 80(4) 14_556 .
H4c C4 H4c 107(7) . 14_556
H2a C2 C1 109.5 . .
H2b C2 C1 109.5 . .
H2b C2 H2a 109.5 . .
H2c C2 C1 109.5 . .
H2c C2 H2a 109.5 . .
H2c C2 H2b 109.5 . .
C1 O1 Ho1 148.6(3) . 5_656
C4 C3 N1 109.2(3) 14_556 14_556
C3 C3 N1 53.5(2) 14_556 14_556
C3 C3 N1 55.34(9) 3_465 14_556
C3 C3 N1 55.34(9) 2_665 14_556
C3 C3 C4 124.8(4) 3_465 14_556
C3 C3 C4 126.7(4) 2_665 14_556
C3 C3 C4 55.73(19) 14_556 14_556
H3 C3 N1 96.1(16) . 14_556
H3 C3 N1 93.3(16) 2_665 14_556
H3 C3 C4 117.2(17) . 14_556
H3 C3 C4 120.3(16) 2_665 14_556
H3 C3 C3 40.8(16) . 3_465
H3 C3 C3 113.6(16) 2_665 3_465
C1 O1a Ho1 145.2(3) . 5_656
C1 S1a Pt1 107.5(2) . 6_665
loop_
_geom_bond_atom_site_label_1
_geom_bond_atom_site_label_2
_geom_bond_distance
_geom_bond_site_symmetry_2
Pt1 S1 2.311(4) 6_665
Pt1 S1 2.311(4) 2_655
Pt1 S1 2.311(4) 3_565
Pt1 S1 2.311(4) .
Pt1 S1a 2.311(4) 6_665
Pt1 S1a 2.311(4) 3_565
Pt1 S1a 2.311(4) .
Pt1 S1a 2.311(4) 2_655
Ho1 O1 2.405(4) 6_665
Ho1 O1 2.405(4) .
Ho1 O1 2.405(4) 5_656
Ho1 O1 2.405(4) 3_565
Ho1 O1 2.405(4) 7_556
Ho1 O1 2.405(4) 2_655
Ho1 O1 2.405(4) 4_566
Ho1 O1 2.405(4) 8_666
Ho1 O1a 2.328(4) 2_655
Ho1 O1a 2.328(4) 7_556
Ho1 O1a 2.328(4) .
Ho1 O1a 2.328(4) 6_665
Ho1 O1a 2.328(4) 5_656
Ho1 O1a 2.328(4) 4_566
Ho1 O1a 2.328(4) 3_565
Ho1 O1a 2.328(4) 8_666
S1 C1 1.756(5) .
N1 C3 1.527(5) 2_665
N1 C3 1.527(5) 11_666
N1 C3 1.527(5) .
N1 C3 1.527(5) 9_576
N1 C3 1.527(5) 6_575
N1 C3 1.527(5) 10_466
N1 C3 1.527(5) 3_465
N1 C3 1.527(5) 14_556
C1 C2 1.509(4) .
C1 O1 1.209(5) .
C1 O1a 1.320(5) .
C1 S1a 1.632(5) .
C4 C3 1.611(6) .
C4 C3 1.611(6) 14_556
C4 H4a 0.940(19) .
C4 H4b 0.939(19) .
C4 H4c 0.952(19) .
C4 H4c 0.952(19) 14_556
C2 H2a 0.9800 .
C2 H2b 0.9800 .
C2 H2c 0.9800 .
C3 C3 1.815(10) 14_556
C3 C3 1.736(7) 3_465
C3 C3 1.736(7) 2_665
C3 H3 1.16(3) 2_665
C3 H3 1.09(3) .
loop_
_restr_distance_atom_site_label_1
_restr_distance_atom_site_label_2
_restr_distance_site_symmetry_2
_restr_distance_target
_restr_distance_target_weight_param
_restr_distance_diff
C4 H4a 1 0.9600 0.0200 0.0200
C4 H4b 1 0.9600 0.0200 0.0213
C4 H4c 1 0.9600 0.0200 0.0076
