#------------------------------------------------------------------------------
#$Date: 2017-05-06 00:45:07 +0300 (Sat, 06 May 2017) $
#$Revision: 196331 $
#$URL: file:///home/coder/svn-repositories/cod/cif/1/54/53/1545352.cif $
#------------------------------------------------------------------------------
#
# This file is available in the Crystallography Open Database (COD),
# http://www.crystallography.net/
#
# All data on this site have been placed in the public domain by the
# contributors.
#
data_1545352
loop_
_publ_author_name
'S\/orensen, Mikkel A.'
'Weihe, H\/ogni'
'Vinum, Morten G.'
'Mortensen, Jesper S.'
'Doerrer, Linda H.'
'Bendix, Jesper'
_publ_section_title
;
 Imposing high-symmetry and tuneable geometry on lanthanide centres with
 chelating Pt and Pd metalloligands
;
_journal_issue                   5
_journal_name_full               'Chem. Sci.'
_journal_page_first              3566
_journal_paper_doi               10.1039/C7SC00135E
_journal_volume                  8
_journal_year                    2017
_chemical_formula_moiety         'C16 H24 Gd O8 Pt2 S8, C8 H20 N'
_chemical_formula_sum            'C24 H44 Gd N O8 Pt2 S8'
_chemical_formula_weight         1278.56
_space_group_crystal_system      tetragonal
_space_group_IT_number           124
_space_group_name_Hall           '-P 4 2c'
_space_group_name_H-M_alt        'P 4/m c c'
_symmetry_Int_Tables_number      124
_symmetry_space_group_name_Hall  '-P 4 2c'
_symmetry_space_group_name_H-M   'P 4/m c c'
_atom_sites_solution_primary     iterative
_audit_creation_date             2015-05-10
_audit_creation_method
;
Olex2 1.2
(compiled 2015.01.26 svn.r3150 for OlexSys, GUI svn.r4998)
;
_audit_update_record
;
2017-01-09 deposited with the CCDC.
2017-02-28 downloaded from the CCDC.
;
_cell_angle_alpha                90
_cell_angle_beta                 90
_cell_angle_gamma                90
_cell_formula_units_Z            2
_cell_length_a                   8.6134(3)
_cell_length_b                   8.6134(3)
_cell_length_c                   25.4434(9)
_cell_measurement_reflns_used    9979
_cell_measurement_temperature    122
_cell_measurement_theta_max      29.09
_cell_measurement_theta_min      2.86
_cell_volume                     1887.66(11)
_computing_molecular_graphics    'Olex2 (Dolomanov et al., 2009)'
_computing_publication_material  'Olex2 (Dolomanov et al., 2009)'
_computing_structure_refinement  'olex2.refine (Bourhis et al., 2015)'
_computing_structure_solution    'olex2.solve (Bourhis et al., 2015)'
_diffrn_ambient_temperature      122
_diffrn_measured_fraction_theta_full 0.9990
_diffrn_measured_fraction_theta_max 0.9992
_diffrn_measurement_device_type  'Bruker APEX-II CCD'
_diffrn_measurement_method       '\f and \w scans'
_diffrn_radiation_type           'Mo K\a'
_diffrn_radiation_wavelength     0.71073
_diffrn_reflns_av_R_equivalents  0.0334
_diffrn_reflns_av_unetI/netI     0.0107
_diffrn_reflns_limit_h_max       11
_diffrn_reflns_limit_h_min       -11
_diffrn_reflns_limit_k_max       11
_diffrn_reflns_limit_k_min       -11
_diffrn_reflns_limit_l_max       34
_diffrn_reflns_limit_l_min       -34
_diffrn_reflns_number            31200
_diffrn_reflns_theta_full        26.0000
_diffrn_reflns_theta_max         28.70
_diffrn_reflns_theta_min         2.36
_diffrn_standards_number         0
_exptl_absorpt_coefficient_mu    9.612
_exptl_absorpt_correction_T_max  0.7458
_exptl_absorpt_correction_T_min  0.5766
_exptl_absorpt_correction_type   multi-scan
_exptl_absorpt_process_details
;
SADABS-2012/1 (Bruker,2012) was used for absorption correction.
wR2(int) was 0.1107 before and 0.0525 after correction.
The Ratio of minimum to maximum transmission is 0.7731.
The \l/2 correction factor is 0.0000.
;
_exptl_crystal_colour            'clear light yellow'
_exptl_crystal_colour_lustre     clear
_exptl_crystal_colour_modifier   light
_exptl_crystal_colour_primary    yellow
_exptl_crystal_density_diffrn    2.2493
_exptl_crystal_description       plate
_exptl_crystal_F_000             1214
_exptl_crystal_size_max          0.1
_exptl_crystal_size_mid          0.1
_exptl_crystal_size_min          0.04
_refine_diff_density_max         1.4316
_refine_diff_density_min         -0.8957
_refine_diff_density_rms         0.1856
_refine_ls_d_res_high            0.7400
_refine_ls_d_res_low             8.6134
_refine_ls_goodness_of_fit_ref   1.0895
_refine_ls_hydrogen_treatment    mixed
_refine_ls_matrix_type           full
_refine_ls_number_constraints    4
_refine_ls_number_parameters     91
_refine_ls_number_reflns         1263
_refine_ls_number_restraints     3
_refine_ls_restrained_S_all      1.0882
_refine_ls_R_factor_all          0.0215
_refine_ls_R_factor_gt           0.0164
_refine_ls_shift/su_max          0.0000
_refine_ls_shift/su_mean         0.0000
_refine_ls_structure_factor_coef Fsqd
_refine_ls_weighting_details
'w=1/[\s^2^(Fo^2^)+(0.0362P)^2^+1.3558P] where P=(Fo^2^+2Fc^2^)/3'
_refine_ls_weighting_scheme      calc
_refine_ls_wR_factor_gt          0.0522
_refine_ls_wR_factor_ref         0.0559
_reflns_Friedel_coverage         0.0
_reflns_limit_h_max              11
_reflns_limit_h_min              0
_reflns_limit_k_max              8
_reflns_limit_k_min              0
_reflns_limit_l_max              34
_reflns_limit_l_min              0
_reflns_number_gt                1086
_reflns_number_total             1263
_reflns_threshold_expression     I>=2u(I)
_cod_data_source_file            c7sc00135e2.cif
_cod_data_source_block           1Gd-LT
_cod_depositor_comments
'Adding full bibliography for 1545338--1545364.cif.'
_cod_database_code               1545352
_olex2_refinement_description
;
1. Fixed Uiso
 At 1.5 times of:
  All C(H,H,H) groups
2. Restrained distances
 C4-H4a
 0.96 with sigma of 0.02
 C4-H4b
 0.96 with sigma of 0.02
 C4-H4c
 0.96 with sigma of 0.02
3. Others
 Fixed Sof: S1(0.5) C3(0.5) S1a(0.5) O1(0.5) H4a(0.425) O1a(0.5) H4b(0.425)
 H4c(0.65)
4.a Idealised Me refined as rotating group:
 C2(H2a,H2b,H2c)
;
_olex2_date_sample_data_collection 18.03.14
_olex2_submission_special_instructions 'No special instructions were received'
loop_
_space_group_symop_id
_space_group_symop_operation_xyz
1 x,y,z
2 -y,x,z
3 y,-x,z
4 x,-y,-z+1/2
5 -x,y,-z+1/2
6 -x,-y,z
7 y,x,-z+1/2
8 -y,-x,-z+1/2
9 -x,-y,-z
10 y,-x,-z
11 -y,x,-z
12 -x,y,z-1/2
13 x,-y,z-1/2
14 x,y,-z
15 -y,-x,z-1/2
16 y,x,z-1/2
loop_
_atom_site_label
_atom_site_type_symbol
_atom_site_fract_x
_atom_site_fract_y
_atom_site_fract_z
_atom_site_U_iso_or_equiv
_atom_site_adp_type
_atom_site_occupancy
_atom_site_site_symmetry_order
_atom_site_refinement_flags_posn
_atom_site_refinement_flags_adp
_atom_site_refinement_flags_occupancy
_atom_site_disorder_group
Pt1 Pt 0.5 0.5 0.395375(7) 0.01240(9) Uani 1.000000 4 S T P .
Gd1 Gd 0.5 0.5 0.25 0.01041(10) Uani 1.000000 8 S T P .
S1 S 0.4247(2) 0.7572(4) 0.39875(13) 0.0170(5) Uani 0.500000 1 . . . 1
C2 C 0.2974(4) 0.9545(3) 0.32400(11) 0.0254(6) Uani 1.000000 1 . . . .
H2a H 0.1921(10) 0.9390(3) 0.3104(8) 0.0381(9) Uiso 1.000000 1 GR . . .
H2b H 0.293(2) 1.0128(11) 0.3570(2) 0.0381(9) Uiso 1.000000 1 GR . . .
H2c H 0.3588(15) 1.0127(11) 0.2982(7) 0.0381(9) Uiso 1.000000 1 GR . . .
C1 C 0.3726(3) 0.7984(3) 0.33369(10) 0.0212(5) Uani 1.000000 1 . . . .
N1 N 0.0 1.0 0.5 0.0106(11) Uani 1.000000 8 S T P .
C4 C 0.2883(5) 1.0686(5) 0.5 0.0363(11) Uani 1.000000 2 DS T P .
C3 C 0.1389(5) 1.0315(5) 0.46463(19) 0.0141(9) Uani 0.500000 1 . . . .
S1a S 0.3747(3) 0.7372(4) 0.39389(13) 0.0157(5) Uani 0.500000 1 . . . 2
O1 O 0.3638(4) 0.7019(4) 0.29923(13) 0.0167(7) Uani 0.500000 1 . . . 1
H4a H 0.343(7) 0.972(4) 0.5 0.05(2) Uiso 0.850000 2 DS T P .
O1a O 0.4520(5) 0.7366(4) 0.29345(13) 0.0149(6) Uani 0.500000 1 . . . 2
H3 H 0.133(4) 0.911(4) 0.4436(15) 0.044(10) Uiso 1.000000 1 . . . .
H4b H 0.277(7) 1.179(2) 0.5 0.046(16) Uiso 0.850000 2 DS T P .
H4c H 0.358(5) 1.084(6) 0.5291(15) 0.053(16) Uiso 0.650000 1 D . . .
loop_
_atom_site_aniso_label
_atom_site_aniso_U_11
_atom_site_aniso_U_22
_atom_site_aniso_U_33
_atom_site_aniso_U_12
_atom_site_aniso_U_13
_atom_site_aniso_U_23
Pt1 0.01135(10) 0.01135(10) 0.01448(13) -0.000000 -0.000000 0.000000
Gd1 0.00761(12) 0.00761(12) 0.01602(18) -0.000000 -0.000000 0.000000
S1 0.0209(14) 0.0152(9) 0.0149(8) 0.0020(10) 0.0021(11) -0.0039(6)
C2 0.0279(15) 0.0148(12) 0.0336(16) 0.0042(12) -0.0035(11) -0.0002(10)
C1 0.0272(14) 0.0151(11) 0.0214(12) 0.0045(10) -0.0071(11) -0.0059(10)
N1 0.0117(16) 0.0117(16) 0.008(2) -0.000000 -0.000000 0.000000
C4 0.0119(18) 0.028(2) 0.069(3) -0.0023(16) -0.000000 0.000000
C3 0.014(2) 0.015(2) 0.0133(19) -0.0003(17) 0.0044(18) 0.0014(18)
S1a 0.0172(12) 0.0136(11) 0.0162(9) 0.0049(10) 0.0046(10) 0.0001(7)
O1 0.0172(18) 0.0184(17) 0.0144(17) 0.0019(14) 0.0025(15) -0.0011(14)
O1a 0.0202(17) 0.0100(15) 0.0147(17) 0.0016(14) 0.0032(16) -0.0027(13)
loop_
_atom_type_symbol
_atom_type_scat_dispersion_real
_atom_type_scat_dispersion_imag
_atom_type_scat_Cromer_Mann_a1
_atom_type_scat_Cromer_Mann_a2
_atom_type_scat_Cromer_Mann_a3
_atom_type_scat_Cromer_Mann_a4
_atom_type_scat_Cromer_Mann_b1
_atom_type_scat_Cromer_Mann_b2
_atom_type_scat_Cromer_Mann_b3
_atom_type_scat_Cromer_Mann_b4
_atom_type_scat_Cromer_Mann_c
_atom_type_scat_source
_atom_type_scat_dispersion_source
C 0.00347 0.00161 2.31000 1.02000 1.58860 0.86500 20.84390 10.20750 0.56870
51.65120 0.215599998832
'International Tables Volume C Table 6.1.1.4 (pp. 500-502)'
'Henke, Gullikson and Davis, At. Data and Nucl. Data Tables, 1993, 54, 2'
Pt -1.63788 8.57892 27.00590 17.76390 15.71310 5.78370 1.51293 8.81174 0.42459
38.61030 11.6883001328
'International Tables Volume C Table 6.1.1.4 (pp. 500-502)'
'Henke, Gullikson and Davis, At. Data and Nucl. Data Tables, 1993, 54, 2'
H 0.00000 0.00000 0.49300 0.32291 0.14019 0.04081 10.51090 26.12570 3.14236
57.79970 0.0030380000826
'International Tables Volume C Table 6.1.1.4 (pp. 500-502)'
'Henke, Gullikson and Davis, At. Data and Nucl. Data Tables, 1993, 54, 2'
O 0.01158 0.00611 3.04850 2.28680 1.54630 0.86700 13.27710 5.70110 0.32390
32.90890 0.250800013542
'International Tables Volume C Table 6.1.1.4 (pp. 500-502)'
'Henke, Gullikson and Davis, At. Data and Nucl. Data Tables, 1993, 54, 2'
N 0.00653 0.00323 12.21260 3.13220 2.01250 1.16630 0.00570 9.89330 28.99750
0.58260 -11.5290002823
'International Tables Volume C Table 6.1.1.4 (pp. 500-502)'
'Henke, Gullikson and Davis, At. Data and Nucl. Data Tables, 1993, 54, 2'
S 0.12424 0.12443 6.90530 5.20340 1.43790 1.58630 1.46790 22.21510 0.25360
56.17200 0.866900026798
'International Tables Volume C Table 6.1.1.4 (pp. 500-502)'
'Henke, Gullikson and Davis, At. Data and Nucl. Data Tables, 1993, 54, 2'
Gd 0.10424 4.27310 25.07090 19.07980 13.85180 3.54545 2.25341 0.18195 12.93310
101.39800 2.41960000992
'International Tables Volume C Table 6.1.1.4 (pp. 500-502)'
'Henke, Gullikson and Davis, At. Data and Nucl. Data Tables, 1993, 54, 2'
loop_
_geom_angle_atom_site_label_1
_geom_angle_atom_site_label_2
_geom_angle_atom_site_label_3
_geom_angle
_geom_angle_site_symmetry_1
_geom_angle_site_symmetry_3
S1 Pt1 S1 175.74(17) 6_665 .
S1 Pt1 S1 89.9 2_655 6_665
S1 Pt1 S1 89.9 2_655 .
S1 Pt1 S1 89.9 3_565 .
S1 Pt1 S1 89.9 3_565 6_665
S1 Pt1 S1 175.74(17) 2_655 3_565
S1a Pt1 S1a 178.13(17) 6_665 .
S1a Pt1 S1a 90.0 2_655 6_665
S1a Pt1 S1a 90.0 2_655 .
S1a Pt1 S1a 90.0 3_565 .
S1a Pt1 S1a 90.0 3_565 6_665
S1a Pt1 S1a 178.13(17) 2_655 3_565
O1 Gd1 O1 74.76(8) 6_665 2_655
O1 Gd1 O1 161.14(19) 5_655 2_655
O1 Gd1 O1 74.76(8) 8_665 5_655
O1 Gd1 O1 122.61(18) 6_665 5_655
O1 Gd1 O1 89.24(18) 6_665 4_565
O1 Gd1 O1 161.14(19) 7 .
O1 Gd1 O1 118.31(16) 8_665 7
O1 Gd1 O1 89.24(18) 7 3_565
O1 Gd1 O1 65.13(16) 5_655 3_565
O1 Gd1 O1 65.13(16) 7 6_665
O1 Gd1 O1 118.31(16) 6_665 .
O1 Gd1 O1 89.24(18) 8_665 2_655
O1 Gd1 O1 74.76(8) 6_665 3_565
O1 Gd1 O1 122.61(18) . 4_565
O1 Gd1 O1 74.76(8) 7 4_565
O1 Gd1 O1 65.13(16) 2_655 4_565
O1 Gd1 O1 122.61(18) 7 2_655
O1 Gd1 O1 74.76(8) 2_655 .
O1 Gd1 O1 74.76(8) 7 5_655
O1 Gd1 O1 161.14(19) 3_565 4_565
O1 Gd1 O1 65.13(16) 8_665 .
O1 Gd1 O1 74.76(8) 3_565 .
O1 Gd1 O1 122.61(18) 8_665 3_565
O1 Gd1 O1 118.31(16) 3_565 2_655
O1 Gd1 O1 161.14(19) 8_665 6_665
O1 Gd1 O1 118.31(16) 5_655 4_565
O1 Gd1 O1 89.24(18) 5_655 .
O1 Gd1 O1 74.76(8) 8_665 4_565
O1a Gd1 O1a 159.78(19) . 4_565
O1a Gd1 O1a 121.61(19) 7 .
O1a Gd1 O1a 159.78(19) 8_665 3_565
O1a Gd1 O1a 85.21(18) 2_655 4_565
O1a Gd1 O1a 85.21(18) 7 6_665
O1a Gd1 O1a 77.27(7) 2_655 .
O1a Gd1 O1a 159.78(19) 6_665 5_655
O1a Gd1 O1a 121.61(19) 3_565 4_565
O1a Gd1 O1a 60.15(16) 7 3_565
O1a Gd1 O1a 77.27(7) 3_565 .
O1a Gd1 O1a 85.21(18) 8_665 .
O1a Gd1 O1a 124.02(16) 3_565 2_655
O1a Gd1 O1a 121.61(19) 8_665 6_665
O1a Gd1 O1a 124.02(16) 5_655 4_565
O1a Gd1 O1a 77.27(7) 7 4_565
O1a Gd1 O1a 60.15(16) 5_655 .
O1a Gd1 O1a 159.78(19) 7 2_655
O1a Gd1 O1a 121.61(19) 5_655 2_655
O1a Gd1 O1a 77.27(7) 7 5_655
O1a Gd1 O1a 85.21(18) 5_655 3_565
O1a Gd1 O1a 77.27(7) 8_665 4_565
O1a Gd1 O1a 60.15(16) 6_665 4_565
O1a Gd1 O1a 60.15(16) 8_665 2_655
O1a Gd1 O1a 124.02(16) 6_665 .
O1a Gd1 O1a 77.27(7) 8_665 5_655
O1a Gd1 O1a 77.27(7) 6_665 2_655
O1a Gd1 O1a 77.27(7) 6_665 3_565
O1a Gd1 O1a 124.02(16) 8_665 7
C1 S1 Pt1 103.37(16) . .
H2b C2 H2a 109.5 . .
H2c C2 H2a 109.5 . .
H2c C2 H2b 109.5 . .
C1 C2 H2a 109.5 . .
C1 C2 H2b 109.5 . .
C1 C2 H2c 109.5 . .
O1 C1 S1 124.1(3) . .
O1a C1 S1a 126.0(3) . .
C3 N1 C3 110.48(19) 9_576 2_665
C3 N1 C3 69.52(19) 10_466 14_556
C3 N1 C3 72.5(4) 10_466 3_465
C3 N1 C3 72.5(4) 14_556 .
C3 N1 C3 69.52(19) 11_666 9_576
C3 N1 C3 110.48(19) 14_556 2_665
C3 N1 C3 110.48(19) 10_466 6_575
C3 N1 C3 180.0 11_666 3_465
C3 N1 C3 110.48(19) 11_666 6_575
C3 N1 C3 110.48(19) 14_556 3_465
C3 N1 C3 69.52(19) . 3_465
C3 N1 C3 180.0 14_556 6_575
C3 N1 C3 69.52(19) 6_575 3_465
C3 N1 C3 107.5(4) 14_556 9_576
C3 N1 C3 107.5(4) 6_575 .
C3 N1 C3 110.48(19) 11_666 .
C3 N1 C3 107.5(4) 2_665 3_465
C3 N1 C3 72.5(4) 11_666 2_665
C3 N1 C3 69.52(19) 2_665 .
C3 N1 C3 69.52(19) 11_666 14_556
C3 N1 C3 69.52(19) 2_665 6_575
C3 N1 C3 110.48(19) 10_466 .
C3 N1 C3 110.48(19) 9_576 3_465
C3 N1 C3 69.52(19) 10_466 9_576
C3 N1 C3 180.0 9_576 .
C3 N1 C3 107.5(4) 10_466 11_666
C3 N1 C3 72.5(4) 9_576 6_575
C3 N1 C3 180.0 10_466 2_665
C3 C4 C3 68.3(4) 14_556 .
H4a C4 C3 103(3) . 14_556
H4a C4 C3 103(3) . .
H4b C4 C3 97(3) . .
H4b C4 C3 97(3) . 14_556
H4b C4 H4a 156(5) . .
H4c C4 C3 164(3) . .
H4c C4 C3 95(3) . 14_556
H4c C4 C3 95(3) 14_556 .
H4c C4 C3 164(3) 14_556 14_556
H4c C4 H4a 79(4) 14_556 .
H4c C4 H4a 79(4) . .
H4c C4 H4b 86(4) 14_556 .
H4c C4 H4b 86(4) . .
H4c C4 H4c 101(6) . 14_556
C4 C3 N1 109.6(3) . 2_665
C3 C3 N1 55.24(10) 2_665 2_665
C3 C3 N1 55.24(10) 3_465 2_665
C3 C3 N1 53.74(18) 14_556 2_665
C3 C3 C4 126.7(3) 3_465 .
C3 C3 C4 125.0(3) 2_665 .
C3 C3 C4 55.84(18) 14_556 .
H3 C3 N1 94.4(18) . 2_665
H3 C3 N1 97(2) 2_665 2_665
H3 C3 C4 115.1(19) 2_665 .
H3 C3 C4 118.0(18) . .
H3 C3 C3 39.2(18) . 3_465
H3 C3 C3 117.4(18) 2_665 3_465
C1 S1a Pt1 107.95(18) . .
C1 O1 Gd1 146.1(3) . 4_565
C1 O1a Gd1 142.3(3) . 4_565
loop_
_geom_bond_atom_site_label_1
_geom_bond_atom_site_label_2
_geom_bond_distance
_geom_bond_site_symmetry_2
Pt1 S1 2.310(3) .
Pt1 S1 2.310(3) 3_565
Pt1 S1 2.310(3) 6_665
Pt1 S1 2.310(3) 2_655
Pt1 S1a 2.311(3) .
Pt1 S1a 2.311(3) 2_655
Pt1 S1a 2.311(3) 3_565
Pt1 S1a 2.311(3) 6_665
Gd1 O1 2.443(3) 8_665
Gd1 O1 2.443(3) 2_655
Gd1 O1 2.443(3) 5_655
Gd1 O1 2.443(3) 6_665
Gd1 O1 2.443(3) 3_565
Gd1 O1 2.443(3) 4_565
Gd1 O1 2.443(3) .
Gd1 O1 2.443(3) 7
Gd1 O1a 2.355(3) 4_565
Gd1 O1a 2.355(3) 2_655
Gd1 O1a 2.355(3) .
Gd1 O1a 2.355(3) 5_655
Gd1 O1a 2.355(3) 7
Gd1 O1a 2.355(3) 8_665
Gd1 O1a 2.355(3) 3_565
Gd1 O1a 2.355(3) 6_665
S1 C1 1.751(4) .
C2 H2a 0.9800 .
C2 H2b 0.9800 .
C2 H2c 0.9800 .
C2 C1 1.512(4) .
C1 S1a 1.620(4) .
C1 O1 1.211(4) .
C1 O1a 1.341(4) .
N1 C3 1.521(4) 6_575
N1 C3 1.521(4) 11_666
N1 C3 1.521(4) 2_665
N1 C3 1.521(4) 9_576
N1 C3 1.521(4) 14_556
N1 C3 1.521(4) 3_465
N1 C3 1.521(4) .
N1 C3 1.521(4) 10_466
C4 C3 1.603(6) .
C4 C3 1.603(6) 14_556
C4 H4a 0.953(19) .
C4 H4b 0.954(19) .
C4 H4c 0.959(19) 14_556
C4 H4c 0.959(19) .
C3 C3 1.735(6) 3_465
C3 C3 1.735(6) 2_665
C3 C3 1.800(10) 14_556
C3 H3 1.17(4) .
C3 H3 1.11(4) 2_665
loop_
_restr_distance_atom_site_label_1
_restr_distance_atom_site_label_2
_restr_distance_site_symmetry_2
_restr_distance_target
_restr_distance_target_weight_param
_restr_distance_diff
C4 H4a 1 0.9600 0.0200 0.0065
C4 H4b 1 0.9600 0.0200 0.0056
C4 H4c 1 0.9600 0.0200 0.0009
