#------------------------------------------------------------------------------
#$Date: 2017-05-06 00:46:53 +0300 (Sat, 06 May 2017) $
#$Revision: 196338 $
#$URL: file:///home/coder/svn-repositories/cod/cif/1/54/51/1545180.cif $
#------------------------------------------------------------------------------
#
# This file is available in the Crystallography Open Database (COD),
# http://www.crystallography.net/
#
# All data on this site have been placed in the public domain by the
# contributors.
#
data_1545180
loop_
_publ_author_name
'Rovira, Alexander R.'
'Fin, Andrea'
'Tor, Yitzhak'
_publ_section_title
;
 Expanding a fluorescent RNA alphabet: synthesis, photophysics and utility
 of isothiazole-derived purine nucleoside surrogates.
;
_journal_issue                   4
_journal_name_full               'Chemical science'
_journal_page_first              2983
_journal_page_last               2993
_journal_paper_doi               10.1039/c6sc05354h
_journal_volume                  8
_journal_year                    2017
_chemical_absolute_configuration ad
_chemical_formula_moiety         'C10 H12 N4 O5 S, 1.75(H2 O)'
_chemical_formula_sum            'C10 H15.5 N4 O6.75 S'
_chemical_formula_weight         331.82
_space_group_crystal_system      triclinic
_space_group_IT_number           1
_space_group_name_Hall           'P 1'
_space_group_name_H-M_alt        'P 1'
_symmetry_space_group_name_Hall  'P 1'
_symmetry_space_group_name_H-M   'P 1'
_atom_sites_solution_hydrogens   mixed
_atom_sites_solution_primary     direct
_atom_sites_solution_secondary   difmap
_audit_creation_date             2016-05-16
_audit_creation_method
;
Olex2 1.2-beta
(compiled 2016.02.19 svn.r3266 for OlexSys, GUI svn.r5155)
;
_audit_update_record
;
2016-12-06 deposited with the CCDC.
2017-01-27 downloaded from the CCDC.
;
_cell_angle_alpha                72.0700(10)
_cell_angle_beta                 80.2730(10)
_cell_angle_gamma                86.279(2)
_cell_formula_units_Z            4
_cell_length_a                   8.0883(2)
_cell_length_b                   10.9716(3)
_cell_length_c                   16.0771(4)
_cell_measurement_reflns_used    9799
_cell_measurement_temperature    100.0
_cell_measurement_theta_max      68.272
_cell_measurement_theta_min      2.925
_cell_volume                     1337.78(6)
_computing_cell_refinement       'SAINT v8.34A (Bruker, 2013)'
_computing_data_collection       'APEX2 v2014.11-0 (Bruker, 2014)'
_computing_data_reduction        'SAINT v8.34A (Bruker, 2013)'
_computing_molecular_graphics    'Olex2 (Dolomanov et al., 2009)'
_computing_publication_material  'Olex2 (Dolomanov et al., 2009)'
_computing_structure_refinement  'ShelXL (Sheldrick, 2015)'
_computing_structure_solution    'ShelXT (Sheldrick, 2015)'
_diffrn_ambient_temperature      100.0
_diffrn_detector                 'Bruker APEX-II CCD'
_diffrn_detector_area_resol_mean 7.9
_diffrn_detector_type            'CCD Area Detector'
_diffrn_measured_fraction_theta_full 0.971
_diffrn_measured_fraction_theta_max 0.967
_diffrn_measurement_device       'Kappa Four-Circle Diffractometer'
_diffrn_measurement_device_type  'Bruker X8 APEX II'
_diffrn_measurement_method       '\w and \f scans'
_diffrn_radiation_monochromator  'Double Bounce Multilayer Mirrors'
_diffrn_radiation_probe          x-ray
_diffrn_radiation_type           CuK\a
_diffrn_radiation_wavelength     1.54178
_diffrn_reflns_av_R_equivalents  0.0321
_diffrn_reflns_av_unetI/netI     0.0263
_diffrn_reflns_Laue_measured_fraction_full 0.971
_diffrn_reflns_Laue_measured_fraction_max 0.967
_diffrn_reflns_limit_h_max       9
_diffrn_reflns_limit_h_min       -9
_diffrn_reflns_limit_k_max       13
_diffrn_reflns_limit_k_min       -13
_diffrn_reflns_limit_l_max       19
_diffrn_reflns_limit_l_min       -19
_diffrn_reflns_number            47934
_diffrn_reflns_point_group_measured_fraction_full 0.929
_diffrn_reflns_point_group_measured_fraction_max 0.925
_diffrn_reflns_theta_full        68.000
_diffrn_reflns_theta_max         68.267
_diffrn_reflns_theta_min         2.925
_diffrn_source                   'Micro Focus Rotating Anode'
_diffrn_source_type              'Bruker Microstar FR-592'
_diffrn_standards_number         0
_exptl_absorpt_coefficient_mu    2.578
_exptl_absorpt_correction_T_max  0.3200
_exptl_absorpt_correction_T_min  0.2197
_exptl_absorpt_correction_type   multi-scan
_exptl_absorpt_process_details
;
SADABS-2014/5 (Bruker,2014/5) was used for absorption correction.
wR2(int) was 0.0968 before and 0.0563 after correction.
The Ratio of minimum to maximum transmission is 0.6866.
The \l/2 correction factor is 0.00150.
;
_exptl_crystal_colour            Colorless
_exptl_crystal_colour_primary    Colorless
_exptl_crystal_density_diffrn    1.648
_exptl_crystal_description       Blade
_exptl_crystal_F_000             694
_exptl_crystal_size_max          0.234
_exptl_crystal_size_mid          0.116
_exptl_crystal_size_min          0.095
_refine_diff_density_max         0.317
_refine_diff_density_min         -0.181
_refine_diff_density_rms         0.050
_refine_ls_abs_structure_details
;
 Flack x determined using 3759 quotients [(I+)-(I-)]/[(I+)+(I-)]
 (Parsons, Flack and Wagner, Acta Cryst. B69 (2013) 249-259).
;
_refine_ls_abs_structure_Flack   0.036(5)
_refine_ls_extinction_method     none
_refine_ls_goodness_of_fit_ref   1.025
_refine_ls_hydrogen_treatment    constr
_refine_ls_matrix_type           full
_refine_ls_number_parameters     817
_refine_ls_number_reflns         9070
_refine_ls_number_restraints     3
_refine_ls_restrained_S_all      1.024
_refine_ls_R_factor_all          0.0311
_refine_ls_R_factor_gt           0.0286
_refine_ls_shift/su_max          0.001
_refine_ls_shift/su_mean         0.000
_refine_ls_structure_factor_coef Fsqd
_refine_ls_weighting_details
'w=1/[\s^2^(Fo^2^)+(0.0549P)^2^] where P=(Fo^2^+2Fc^2^)/3'
_refine_ls_weighting_scheme      calc
_refine_ls_wR_factor_gt          0.0758
_refine_ls_wR_factor_ref         0.0773
_reflns_Friedel_coverage         0.912
_reflns_Friedel_fraction_full    0.887
_reflns_Friedel_fraction_max     0.883
_reflns_number_gt                8414
_reflns_number_total             9070
_reflns_threshold_expression     'I > 2\s(I)'
_cod_data_source_file            c6sc05354h2.cif
_cod_data_source_block           Tor113
_cod_depositor_comments
;
The following automatic conversions were performed:

'_diffrn_radiation_probe' value 'X-ray' changed to 'x-ray' according
to
/usr/data/users/saulius/crontab/automatic-downloads/rss-feeds/RSC/lib/dictionaries/cif_core.dic
dictionary named 'cif_core.dic' version 2.4.2 from 2011-04-26.

Automatic conversion script
Id: cif_fix_values 4268 2015-11-12 08:31:59Z antanas 

 Adding full bibliography for 1545178--1545180.cif.

 Adding full bibliography for 1545178--1545180.cif.
;
_cod_original_formula_sum        'C10 H15.50 N4 O6.75 S'
_cod_database_code               1545180
_shelx_space_group_comment
;
The symmetry employed for this shelxl refinement is uniquely defined
by the following loop, which should always be used as a source of
symmetry information in preference to the above space-group names.
They are only intended as comments.
;
_shelx_estimated_absorpt_t_max   0.792
_shelx_estimated_absorpt_t_min   0.584
_olex2_refinement_description
;
1. Fixed Uiso
 At 1.2 times of:
  All C(H) groups, All C(H,H) groups, All N(H) groups, All N(H,H) groups
 At 1.5 times of:
  All O(H) groups, All O(H,H) groups
2.a Free rotating group:
 O1S(H1SA,H1SB), O2S(H2SA,H2SB), O3S(H3SA,H3SB), O4S(H4SA,H4SB), O5S(H5SA,
 H5SB), O6S(H6SB,H6SA), O7S(H7SA,H7SB)
2.b Ternary CH refined with riding coordinates:
 C2(H2), C3(H3D), C4(H4B), C5(H5), C2A(H2A), C3A(H3AC), C4A(H4AA), C5A(H5A),
 C2B(H2B), C3B(H3BD), C4B(H4BB), C5B(H5B), C2C(H2C), C3C(H3CD), C4C(H4CA),
 C5C(H5C)
2.c Secondary CH2 refined with riding coordinates:
 C1(H1C,H1D), C1A(H1AB,H1AC), C1B(H1BC,H1BD), C1C(H1CC,H1CD)
2.d Aromatic/amide H refined with riding coordinates:
 N1(H1B), N1A(H1AA), N1B(H1BB), N1C(H1CB)
2.e X=CH2 refined with riding coordinates:
 N3(H3B,H3C), N3A(H3AA,H3AB), N3B(H3BB,H3BC), N3C(H3CB,H3CC)
2.f Idealised tetrahedral OH refined as rotating group:
 O1(H1), O3(H3), O4(H4), O1A(H1A), O3A(H3A), O4A(H4A), O1B(H1BA), O3B(H3BA),
 O4B(H4BA), O1C(H1CA), O3C(H3CA), O4C(H4C)
;
_shelx_res_file
;
    tor113.res created by SHELXL-2014/7

TITL Tor113 in P1 #1
REM SHELXT solution in P1
REM R1 0.073, Rweak 0.010, Alpha 0.000, Orientation as input
REM Flack x = 0.082 ( 0.005 ) from Parsons' quotients
REM Formula found by SHELXT: C39 N25 O19 S4
CELL 1.54178 8.0883 10.9716 16.0771 72.07 80.273 86.279
ZERR 4 0.0002 0.0003 0.0004 0.001 0.001 0.002
LATT -1
SFAC C H N O S
UNIT 40 62 16 27 4
EQIV $1 +X,-1+Y,+Z
EQIV $2 +X,1+Y,+Z
EQIV $3 +X,+Y,1+Z
EQIV $4 -1+X,1+Y,-1+Z
EQIV $5 1+X,+Y,+Z
EQIV $6 1+X,+Y,-1+Z
EQIV $7 -1+X,+Y,+Z
EQIV $8 1+X,-1+Y,+Z
EQIV $9 -1+X,+Y,1+Z
EQIV $10 -1+X,1+Y,+Z

L.S. 10 0 110
PLAN  10
SIZE 0.234 0.116 0.095
TEMP -173.15
HTAB O3b O7s_$1
HTAB O4b O5c_$1
HTAB O4c O1_$10
HTAB O3s O2s_$2
HTAB O3s O1a_$3
HTAB O4 O1c
HTAB O4a O7s
HTAB O2s O3c_$1
HTAB O1a O4s
HTAB O3a O1s_$4
HTAB O4s O3a_$5
HTAB O5s O6s
HTAB O1b O1c_$6
HTAB O1c O6s
HTAB O6s O3_$7
HTAB O3c O5s_$2
HTAB N3a O4
HTAB O3 O3s
HTAB O1 O2s
HTAB N1 O5a_$5
HTAB N1a O5_$7
HTAB N3b O4c_$8
HTAB N1c O5b_$2
HTAB N1b O5c_$1
HTAB N3 O4b
HTAB O1s O3b_$3
HTAB O1s O1
HTAB O7s N4c
HTAB O2s O5b
HTAB O4s N4
HTAB O5s O1b_$9
HTAB O6s O5a
HTAB N3 O2a
HTAB O7s O1b_$10
HTAB O4c O2_$10
HTAB O4 O2c
HTAB O2s N4b
HTAB N3c O4a
HTAB N3 N2b_$7
HTAB O6s N4a
HTAB N3a N2c_$5
HTAB N3b N2_$5
BOND $H
ACTA 136
fmap 2
REM <olex2.extras>
REM <HklSrc "%.\\Tor113.hkl">
REM </olex2.extras>

WGHT    0.054900
FVAR       0.36180
S1    5    0.401461    0.708820    0.699687    11.00000    0.01977    0.02398 =
         0.01514   -0.00541   -0.00240   -0.00323
O1    4    0.709343    0.449384    0.927730    11.00000    0.03212    0.02499 =
         0.03217   -0.01186   -0.00484    0.00252
AFIX 147
H1    2    0.672372    0.428486    0.888329    11.00000   -1.50000
AFIX   0
O2    4    0.742480    0.691207    0.797146    11.00000    0.03305    0.03011 =
         0.01893   -0.00984   -0.00960    0.01303
O3    4    0.774441    0.888284    0.895109    11.00000    0.03437    0.02635 =
         0.04235   -0.01817   -0.02066    0.00829
AFIX 147
H3    2    0.733110    0.960498    0.895188    11.00000   -1.50000
AFIX   0
O4    4    0.523443    0.985852    0.795734    11.00000    0.02443    0.02080 =
         0.02296   -0.00661   -0.00375    0.00423
AFIX 147
H4    2    0.433043    1.003545    0.824250    11.00000   -1.50000
AFIX   0
O5    4    0.914964    1.004817    0.405981    11.00000    0.01911    0.03410 =
         0.02056   -0.00583   -0.00130   -0.00502
N1    3    0.766669    0.905916    0.539403    11.00000    0.01482    0.02554 =
         0.01838   -0.00900   -0.00376   -0.00223
AFIX  43
H1B   2    0.840959    0.927900    0.566165    11.00000   -1.20000
AFIX   0
N2    3    0.380984    0.732989    0.596165    11.00000    0.02078    0.02102 =
         0.01610   -0.00703   -0.00280   -0.00083
N3    3    0.429226    0.813596    0.407269    11.00000    0.02218    0.02190 =
         0.01565   -0.00642   -0.00325   -0.00538
AFIX  93
H3B   2    0.444596    0.837642    0.349037    11.00000   -1.20000
H3C   2    0.340087    0.769351    0.437639    11.00000   -1.20000
AFIX   0
N4    3    0.674816    0.910360    0.404744    11.00000    0.01936    0.02084 =
         0.01600   -0.00612   -0.00265    0.00131
C1    1    0.620358    0.560567    0.941115    11.00000    0.03158    0.02776 =
         0.02633   -0.01018   -0.00383    0.00604
AFIX  23
H1C   2    0.599237    0.552782    1.005004    11.00000   -1.20000
H1D   2    0.510768    0.568035    0.920180    11.00000   -1.20000
AFIX   0
C2    1    0.722538    0.678113    0.890841    11.00000    0.02901    0.02668 =
         0.01991   -0.01245   -0.00945    0.00443
AFIX  13
H2    2    0.835683    0.666861    0.909646    11.00000   -1.20000
AFIX   0
C3    1    0.644226    0.803969    0.901221    11.00000    0.02680    0.02363 =
         0.02254   -0.01083   -0.00790    0.00479
AFIX  13
H3D   2    0.565614    0.789570    0.958383    11.00000   -1.20000
AFIX   0
C4    1    0.550774    0.851315    0.822435    11.00000    0.02140    0.02091 =
         0.01727   -0.00753   -0.00446    0.00052
AFIX  13
H4B   2    0.441382    0.806264    0.835971    11.00000   -1.20000
AFIX   0
C5    1    0.668964    0.810079    0.750319    11.00000    0.01662    0.02346 =
         0.01668   -0.00690   -0.00377    0.00211
AFIX  13
H5    2    0.758917    0.875121    0.722371    11.00000   -1.20000
AFIX   0
C6    1    0.583171    0.790697    0.680047    11.00000    0.01762    0.01908 =
         0.01646   -0.00672   -0.00391    0.00305
C7    1    0.629604    0.836053    0.589032    11.00000    0.01724    0.01623 =
         0.01931   -0.00798   -0.00487    0.00363
C8    1    0.510387    0.801811    0.545482    11.00000    0.01490    0.01592 =
         0.01702   -0.00773   -0.00227    0.00079
C9    1    0.539423    0.843770    0.448892    11.00000    0.01914    0.01417 =
         0.01635   -0.00622   -0.00329    0.00480
C10   1    0.789285    0.941992    0.448270    11.00000    0.01766    0.01909 =
         0.01937   -0.00745   -0.00306    0.00200

S1A   5    0.549483    1.218507    0.321828    11.00000    0.02262    0.02437 =
         0.01674   -0.00383   -0.00248   -0.00576
O1A   4    0.587994    1.090351    0.082353    11.00000    0.02513    0.04513 =
         0.02274   -0.00667   -0.00344   -0.00300
AFIX 147
H1A   2    0.639113    1.077449    0.125697    11.00000   -1.50000
AFIX   0
O2A   4    0.356853    1.017517    0.245030    11.00000    0.03104    0.02516 =
         0.01800   -0.00790   -0.00815    0.00518
O3A   4    0.057713    1.149656    0.131111    11.00000    0.02207    0.02625 =
         0.02714   -0.00945   -0.00769    0.00260
AFIX 147
H3A   2    0.009598    1.221456    0.124341    11.00000   -1.50000
AFIX   0
O4A   4    0.141262    1.320522    0.205135    11.00000    0.03103    0.02348 =
         0.03196   -0.01092   -0.01055    0.00402
AFIX 147
H4A   2    0.186170    1.389412    0.201194    11.00000   -1.50000
AFIX   0
O5A   4    0.034328    0.937834    0.621094    11.00000    0.01873    0.02551 =
         0.01913   -0.00521   -0.00260   -0.00083
N1A   3    0.181481    1.032271    0.486242    11.00000    0.01705    0.02111 =
         0.01653   -0.00497   -0.00452    0.00018
AFIX  43
H1AA  2    0.106206    1.010216    0.460084    11.00000   -1.20000
AFIX   0
N2A   3    0.570222    1.201974    0.424357    11.00000    0.02035    0.02136 =
         0.02081   -0.00594   -0.00601   -0.00250
N3A   3    0.518703    1.132167    0.614945    11.00000    0.02339    0.02358 =
         0.01683   -0.00418   -0.00568   -0.00433
AFIX  93
H3AA  2    0.503008    1.109498    0.673154    11.00000   -1.20000
H3AB  2    0.607091    1.177110    0.584261    11.00000   -1.20000
AFIX   0
N4A   3    0.277355    1.031616    0.619115    11.00000    0.01981    0.01720 =
         0.01683   -0.00530   -0.00327    0.00043
C1A   1    0.462265    0.997434    0.102731    11.00000    0.03095    0.03131 =
         0.02187   -0.00986   -0.00781    0.00290
AFIX  23
H1AB  2    0.507790    0.912541    0.133377    11.00000   -1.20000
H1AC  2    0.430123    0.992603    0.047092    11.00000   -1.20000
AFIX   0
C2A   1    0.308507    1.028334    0.160765    11.00000    0.02682    0.02418 =
         0.01917   -0.00578   -0.00686   -0.00157
AFIX  13
H2A   2    0.220475    0.963617    0.169708    11.00000   -1.20000
AFIX   0
C3A   1    0.232377    1.163437    0.127296    11.00000    0.02060    0.02384 =
         0.01577   -0.00437   -0.00363   -0.00066
AFIX  13
H3AC  2    0.286928    1.209411    0.065842    11.00000   -1.20000
AFIX   0
C4A   1    0.267127    1.229314    0.193363    11.00000    0.02503    0.02298 =
         0.02189   -0.00752   -0.00579   -0.00141
AFIX  13
H4AA  2    0.378945    1.271471    0.173092    11.00000   -1.20000
AFIX   0
C5A   1    0.273124    1.116809    0.276912    11.00000    0.02088    0.02046 =
         0.02027   -0.00676   -0.00318   -0.00182
AFIX  13
H5A   2    0.155939    1.089656    0.304963    11.00000   -1.20000
AFIX   0
C6A   1    0.363307    1.139643    0.344741    11.00000    0.02043    0.01642 =
         0.01861   -0.00349   -0.00215   -0.00014
C7A   1    0.320018    1.100636    0.435507    11.00000    0.01768    0.01656 =
         0.01867   -0.00534   -0.00387    0.00308
C8A   1    0.438134    1.136566    0.477302    11.00000    0.02138    0.01436 =
         0.01808   -0.00382   -0.00443    0.00243
C9A   1    0.410523    1.099022    0.573983    11.00000    0.02318    0.01353 =
         0.01841   -0.00568   -0.00565    0.00341
C10A  1    0.159719    0.998286    0.576968    11.00000    0.01922    0.01711 =
         0.01570   -0.00404   -0.00219    0.00417

S1B   5    1.063457    0.725022    0.331482    11.00000    0.02035    0.02395 =
         0.01628   -0.00370   -0.00305   -0.00550
O1B   4    1.184635    0.725881    0.060874    11.00000    0.02391    0.03775 =
         0.02990   -0.00724    0.00382   -0.01003
AFIX 147
H1BA  2    1.235799    0.790181    0.025294    11.00000   -1.50000
AFIX   0
O2B   4    0.961220    0.591120    0.215938    11.00000    0.01780    0.03185 =
         0.01731   -0.00878   -0.00220    0.00464
O3B   4    0.651433    0.533395    0.160641    11.00000    0.01847    0.03176 =
         0.02994   -0.01709   -0.00010   -0.00408
AFIX 147
H3BA  2    0.546996    0.541266    0.173267    11.00000   -1.50000
AFIX   0
O4B   4    0.534410    0.704872    0.263364    11.00000    0.01927    0.02178 =
         0.02181   -0.00635   -0.00049    0.00301
AFIX 147
H4BA  2    0.504200    0.630788    0.294606    11.00000   -1.50000
AFIX   0
O5B   4    0.534501    0.436639    0.619610    11.00000    0.02080    0.02227 =
         0.01824   -0.00371   -0.00224   -0.00259
N1B   3    0.692096    0.531450    0.487817    11.00000    0.01725    0.02039 =
         0.01546   -0.00475   -0.00472    0.00030
AFIX  43
H1BB  2    0.622719    0.506963    0.459555    11.00000   -1.20000
AFIX   0
N2B   3    1.071769    0.709801    0.435820    11.00000    0.02205    0.02221 =
         0.01936   -0.00545   -0.00695   -0.00301
N3B   3    1.007765    0.635698    0.625761    11.00000    0.02783    0.02409 =
         0.01737   -0.00385   -0.00715   -0.00566
AFIX  93
H3BB  2    0.989246    0.611220    0.684005    11.00000   -1.20000
H3BC  2    1.095413    0.682800    0.596781    11.00000   -1.20000
AFIX   0
N4B   3    0.772416    0.531412    0.623958    11.00000    0.02168    0.01674 =
         0.01576   -0.00660   -0.00312    0.00044
C1B   1    1.008308    0.754272    0.073323    11.00000    0.02289    0.03472 =
         0.02297   -0.00699   -0.00079   -0.00374
AFIX  23
H1BC  2    0.969277    0.787583    0.015227    11.00000   -1.20000
H1BD  2    0.985497    0.820491    0.104114    11.00000   -1.20000
AFIX   0
C2B   1    0.916637    0.633210    0.127821    11.00000    0.02163    0.02767 =
         0.01516   -0.00834   -0.00272    0.00018
AFIX  13
H2B   2    0.945891    0.564633    0.098589    11.00000   -1.20000
AFIX   0
C3B   1    0.727527    0.653775    0.141984    11.00000    0.02035    0.02374 =
         0.01522   -0.00703   -0.00408    0.00040
AFIX  13
H3BD  2    0.689098    0.719002    0.089902    11.00000   -1.20000
AFIX   0
C4B   1    0.702809    0.700835    0.223521    11.00000    0.02052    0.01866 =
         0.01662   -0.00455   -0.00346    0.00125
AFIX  13
H4BB  2    0.750765    0.788485    0.206263    11.00000   -1.20000
AFIX   0
C5B   1    0.818596    0.604409    0.279826    11.00000    0.01866    0.02020 =
         0.01619   -0.00604   -0.00162    0.00082
AFIX  13
H5B   2    0.760969    0.520167    0.306612    11.00000   -1.20000
AFIX   0
C6B   1    0.883517    0.640581    0.350204    11.00000    0.01776    0.01412 =
         0.01777   -0.00308   -0.00212    0.00049
C7B   1    0.829468    0.603104    0.440286    11.00000    0.01622    0.01644 =
         0.01540   -0.00335   -0.00454    0.00322
C8B   1    0.939199    0.642895    0.484810    11.00000    0.01965    0.01570 =
         0.01769   -0.00497   -0.00405    0.00064
C9B   1    0.904667    0.601958    0.582115    11.00000    0.02470    0.01406 =
         0.01777   -0.00525   -0.00717    0.00295
C10B  1    0.661330    0.497403    0.578858    11.00000    0.02024    0.01488 =
         0.01618   -0.00317   -0.00159    0.00390

S1C   5   -0.102641    1.216089    0.689010    11.00000    0.01876    0.02160 =
         0.01839   -0.00386   -0.00124   -0.00372
O1C   4    0.229106    0.951453    0.918203    11.00000    0.02653    0.01993 =
         0.03411   -0.00831    0.00220    0.00026
AFIX 147
H1CA  2    0.190332    0.932063    0.878721    11.00000   -1.50000
AFIX   0
O2C   4    0.237824    1.194222    0.789331    11.00000    0.02930    0.02327 =
         0.01776   -0.00635   -0.00538    0.00811
O3C   4    0.268330    1.390379    0.890315    11.00000    0.03152    0.02365 =
         0.04141   -0.01566   -0.01449    0.00510
AFIX 147
H3CA  2    0.223111    1.455708    0.901740    11.00000   -1.50000
AFIX   0
O4C   4    0.002223    1.479036    0.800577    11.00000    0.02943    0.02300 =
         0.02236   -0.00760   -0.00291    0.00727
AFIX 147
H4C   2   -0.084918    1.490509    0.834142    11.00000   -1.50000
AFIX   0
O5C   4    0.434083    1.500251    0.404597    11.00000    0.01704    0.03004 =
         0.01857   -0.00451   -0.00136   -0.00567
N1C   3    0.274082    1.406871    0.535334    11.00000    0.01596    0.02133 =
         0.01623   -0.00662   -0.00238   -0.00367
AFIX  43
H1CB  2    0.346029    1.428368    0.563622    11.00000   -1.20000
AFIX   0
N2C   3   -0.113796    1.238053    0.584441    11.00000    0.01800    0.01846 =
         0.02136   -0.00430   -0.00230   -0.00168
N3C   3   -0.040169    1.306944    0.393091    11.00000    0.02094    0.02275 =
         0.02083   -0.00575   -0.00610   -0.00504
AFIX  93
H3CB  2   -0.015400    1.328603    0.335029    11.00000   -1.20000
H3CC  2   -0.130144    1.261619    0.420428    11.00000   -1.20000
AFIX   0
N4C   3    0.193916    1.411073    0.397899    11.00000    0.01620    0.02010 =
         0.01951   -0.00564   -0.00455    0.00140
C1C   1    0.137305    1.058782    0.936263    11.00000    0.02501    0.02253 =
         0.02583   -0.00653   -0.00282    0.00384
AFIX  23
H1CC  2    0.125764    1.049682    1.000175    11.00000   -1.20000
H1CD  2    0.023461    1.061893    0.920706    11.00000   -1.20000
AFIX   0
C2C   1    0.228218    1.181223    0.882870    11.00000    0.02440    0.02373 =
         0.01867   -0.00830   -0.00520    0.00174
AFIX  13
H2C   2    0.344505    1.175555    0.897334    11.00000   -1.20000
AFIX   0
C3C   1    0.142733    1.301630    0.897566    11.00000    0.02584    0.02229 =
         0.01822   -0.00658   -0.00286   -0.00033
AFIX  13
H3CD  2    0.068134    1.282347    0.956239    11.00000   -1.20000
AFIX   0
C4C   1    0.041725    1.346611    0.821588    11.00000    0.01942    0.01960 =
         0.02075   -0.00678   -0.00129    0.00016
AFIX  13
H4CA  2   -0.063482    1.296049    0.836408    11.00000   -1.20000
AFIX   0
C5C   1    0.160629    1.313470    0.745827    11.00000    0.01694    0.01992 =
         0.01562   -0.00332   -0.00244    0.00166
AFIX  13
H5C   2    0.248493    1.380595    0.719906    11.00000   -1.20000
AFIX   0
C6C   1    0.079067    1.296332    0.673191    11.00000    0.01643    0.01684 =
         0.02081   -0.00528   -0.00146    0.00307
C7C   1    0.132772    1.339656    0.582207    11.00000    0.01617    0.01413 =
         0.02049   -0.00594   -0.00291    0.00149
C8C   1    0.018633    1.305814    0.535739    11.00000    0.01659    0.01537 =
         0.01955   -0.00566   -0.00382    0.00218
C9C   1    0.058132    1.342623    0.439412    11.00000    0.01863    0.01513 =
         0.01969   -0.00524   -0.00381    0.00498
C10C  1    0.303024    1.440381    0.444810    11.00000    0.01691    0.01713 =
         0.01826   -0.00629   -0.00219    0.00100

AFIX   6
O1S   4    0.815528    0.335315    1.094341    11.00000    0.06580    0.04434 =
         0.05011   -0.02622   -0.02918    0.02697
H1SA  2    0.789743    0.361044    1.041212    11.00000   -1.50000
H1SB  2    0.766029    0.384715    1.124511    11.00000   -1.50000
AFIX   6

O2S   4    0.586468    0.370679    0.808440    11.00000    0.05057    0.03145 =
         0.01896   -0.00522   -0.00285    0.01058
H2SA  2    0.477458    0.376056    0.816677    11.00000   -1.50000
H2SB  2    0.626175    0.421540    0.756521    11.00000   -1.50000
AFIX   6

O3S   4    0.704248    1.126516    0.906663    11.00000    0.03006    0.02560 =
         0.02048   -0.00723   -0.00074    0.00044
H3SA  2    0.681456    1.128552    0.961073    11.00000   -1.50000
H3SB  2    0.658238    1.192747    0.872424    11.00000   -1.50000
AFIX   6

O4S   4    0.782516    0.996475    0.212406    11.00000    0.02934    0.03589 =
         0.02216   -0.00677   -0.00234   -0.00918
H4SA  2    0.738503    0.982052    0.267735    11.00000   -1.50000
H4SB  2    0.871992    1.042380    0.201023    11.00000   -1.50000
AFIX   6

O5S   4    0.182591    0.625206    0.912191    11.00000    0.04531    0.02830 =
         0.03044   -0.01095   -0.00944    0.00709
H5SA  2    0.155873    0.693115    0.871483    11.00000   -1.50000
H5SB  2    0.194561    0.646016    0.958861    11.00000   -1.50000
AFIX   6

O6S   4    0.088840    0.871554    0.806383    11.00000    0.05757    0.03441 =
         0.01917   -0.00685   -0.00652    0.01599
H6SB  2    0.127873    0.919523    0.753413    11.00000   -1.50000
H6SA  2   -0.020120    0.877451    0.815131    11.00000   -1.50000
AFIX   6

O7S   4    0.315101    1.520711    0.208952    11.00000    0.01900    0.02961 =
         0.02588   -0.00884   -0.00246   -0.00072
H7SA  2    0.265621    1.586772    0.176573    11.00000   -1.50000
H7SB  2    0.269604    1.505396    0.264152    11.00000   -1.50000
AFIX   0
HKLF 4

REM  Tor113 in P1 #1
REM R1 =  0.0286 for    8414 Fo > 4sig(Fo)  and  0.0311 for all    9070 data
REM    817 parameters refined using      3 restraints

END

WGHT      0.0549      0.0000

REM Highest difference peak  0.317,  deepest hole -0.181,  1-sigma level  0.050
Q1    1   0.5285  0.8239  0.5012  11.00000  0.05    0.32
Q2    1   0.5669  0.8283  0.5604  11.00000  0.05    0.31
Q3    1   0.0777  1.3229  0.5574  11.00000  0.05    0.30
Q4    1   0.9285  0.6243  0.5321  11.00000  0.05    0.29
Q5    1   0.0263  1.3201  0.4974  11.00000  0.05    0.29
Q6    1  -0.1285  1.2112  0.6399  11.00000  0.05    0.27
Q7    1   0.2257  1.0230  0.6078  11.00000  0.05    0.27
Q8    1   0.6034  0.8166  0.6455  11.00000  0.05    0.27
Q9    1   0.1044  1.3153  0.6425  11.00000  0.05    0.27
Q10   1   0.4217  1.1218  0.5254  11.00000  0.05    0.26
;
_shelx_res_checksum              78964
_shelx_shelxl_version_number     2014/7
_olex2_submission_special_instructions 'No special instructions were received'
loop_
_space_group_symop_operation_xyz
'x, y, z'
loop_
_atom_site_label
_atom_site_type_symbol
_atom_site_fract_x
_atom_site_fract_y
_atom_site_fract_z
_atom_site_U_iso_or_equiv
_atom_site_adp_type
_atom_site_occupancy
_atom_site_site_symmetry_order
_atom_site_calc_flag
_atom_site_refinement_flags_posn
S1 S 0.40146(8) 0.70882(7) 0.69969(4) 0.01965(18) Uani 1 1 d .
O1 O 0.7093(3) 0.4494(2) 0.92773(16) 0.0292(5) Uani 1 1 d .
H1 H 0.6724 0.4285 0.8883 0.044 Uiso 1 1 calc GR
O2 O 0.7425(3) 0.6912(2) 0.79715(14) 0.0268(5) Uani 1 1 d .
O3 O 0.7744(3) 0.8883(2) 0.89511(16) 0.0312(6) Uani 1 1 d .
H3 H 0.7331 0.9605 0.8952 0.047 Uiso 1 1 calc GR
O4 O 0.5234(3) 0.9859(2) 0.79573(14) 0.0229(5) Uani 1 1 d .
H4 H 0.4330 1.0035 0.8243 0.034 Uiso 1 1 calc GR
O5 O 0.9150(3) 1.0048(2) 0.40598(14) 0.0252(5) Uani 1 1 d .
N1 N 0.7667(3) 0.9059(3) 0.53940(17) 0.0188(6) Uani 1 1 d .
H1B H 0.8410 0.9279 0.5662 0.023 Uiso 1 1 calc R
N2 N 0.3810(3) 0.7330(2) 0.59616(17) 0.0190(6) Uani 1 1 d .
N3 N 0.4292(3) 0.8136(2) 0.40727(17) 0.0195(6) Uani 1 1 d .
H3B H 0.4446 0.8376 0.3490 0.023 Uiso 1 1 calc R
H3C H 0.3401 0.7694 0.4376 0.023 Uiso 1 1 calc R
N4 N 0.6748(3) 0.9104(3) 0.40474(17) 0.0187(6) Uani 1 1 d .
C1 C 0.6204(4) 0.5606(3) 0.9411(2) 0.0285(7) Uani 1 1 d .
H1C H 0.5992 0.5528 1.0050 0.034 Uiso 1 1 calc R
H1D H 0.5108 0.5680 0.9202 0.034 Uiso 1 1 calc R
C2 C 0.7225(4) 0.6781(3) 0.8908(2) 0.0235(7) Uani 1 1 d .
H2 H 0.8357 0.6669 0.9096 0.028 Uiso 1 1 calc R
C3 C 0.6442(4) 0.8040(3) 0.9012(2) 0.0232(7) Uani 1 1 d .
H3D H 0.5656 0.7896 0.9584 0.028 Uiso 1 1 calc R
C4 C 0.5508(4) 0.8513(3) 0.82244(19) 0.0193(6) Uani 1 1 d .
H4B H 0.4414 0.8063 0.8360 0.023 Uiso 1 1 calc R
C5 C 0.6690(4) 0.8101(3) 0.7503(2) 0.0187(7) Uani 1 1 d .
H5 H 0.7589 0.8751 0.7224 0.022 Uiso 1 1 calc R
C6 C 0.5832(4) 0.7907(3) 0.6800(2) 0.0174(7) Uani 1 1 d .
C7 C 0.6296(4) 0.8361(3) 0.5890(2) 0.0169(6) Uani 1 1 d .
C8 C 0.5104(4) 0.8018(3) 0.5455(2) 0.0154(6) Uani 1 1 d .
C9 C 0.5394(4) 0.8438(3) 0.44889(19) 0.0164(6) Uani 1 1 d .
C10 C 0.7893(4) 0.9420(3) 0.4483(2) 0.0184(7) Uani 1 1 d .
S1A S 0.54948(9) 1.21851(7) 0.32183(5) 0.02161(19) Uani 1 1 d .
O1A O 0.5880(3) 1.0904(2) 0.08235(15) 0.0317(5) Uani 1 1 d .
H1A H 0.6391 1.0774 0.1257 0.048 Uiso 1 1 calc GR
O2A O 0.3569(3) 1.0175(2) 0.24503(13) 0.0241(5) Uani 1 1 d .
O3A O 0.0577(3) 1.1497(2) 0.13111(15) 0.0245(5) Uani 1 1 d .
H3A H 0.0096 1.2215 0.1243 0.037 Uiso 1 1 calc GR
O4A O 0.1413(3) 1.3205(2) 0.20514(15) 0.0278(5) Uani 1 1 d .
H4A H 0.1862 1.3894 0.2012 0.042 Uiso 1 1 calc GR
O5A O 0.0343(3) 0.9378(2) 0.62109(14) 0.0215(5) Uani 1 1 d .
N1A N 0.1815(3) 1.0323(2) 0.48624(17) 0.0182(6) Uani 1 1 d .
H1AA H 0.1062 1.0102 0.4601 0.022 Uiso 1 1 calc R
N2A N 0.5702(3) 1.2020(2) 0.42436(17) 0.0205(6) Uani 1 1 d .
N3A N 0.5187(3) 1.1322(3) 0.61494(17) 0.0212(6) Uani 1 1 d .
H3AA H 0.5030 1.1095 0.6732 0.025 Uiso 1 1 calc R
H3AB H 0.6071 1.1771 0.5843 0.025 Uiso 1 1 calc R
N4A N 0.2774(3) 1.0316(2) 0.61911(16) 0.0179(6) Uani 1 1 d .
C1A C 0.4623(4) 0.9974(3) 0.1027(2) 0.0273(7) Uani 1 1 d .
H1AB H 0.5078 0.9125 0.1334 0.033 Uiso 1 1 calc R
H1AC H 0.4301 0.9926 0.0471 0.033 Uiso 1 1 calc R
C2A C 0.3085(4) 1.0283(3) 0.1608(2) 0.0231(7) Uani 1 1 d .
H2A H 0.2205 0.9636 0.1697 0.028 Uiso 1 1 calc R
C3A C 0.2324(4) 1.1634(3) 0.12730(19) 0.0203(7) Uani 1 1 d .
H3AC H 0.2869 1.2094 0.0658 0.024 Uiso 1 1 calc R
C4A C 0.2671(4) 1.2293(3) 0.1934(2) 0.0228(7) Uani 1 1 d .
H4AA H 0.3789 1.2715 0.1731 0.027 Uiso 1 1 calc R
C5A C 0.2731(4) 1.1168(3) 0.2769(2) 0.0203(7) Uani 1 1 d .
H5A H 0.1559 1.0897 0.3050 0.024 Uiso 1 1 calc R
C6A C 0.3633(4) 1.1396(3) 0.3447(2) 0.0190(7) Uani 1 1 d .
C7A C 0.3200(4) 1.1006(3) 0.4355(2) 0.0177(7) Uani 1 1 d .
C8A C 0.4381(4) 1.1366(3) 0.4773(2) 0.0182(7) Uani 1 1 d .
C9A C 0.4105(4) 1.0990(3) 0.5740(2) 0.0181(7) Uani 1 1 d .
C10A C 0.1597(4) 0.9983(3) 0.5770(2) 0.0178(7) Uani 1 1 d .
S1B S 1.06346(9) 0.72502(7) 0.33148(5) 0.02048(19) Uani 1 1 d .
O1B O 1.1846(3) 0.7259(2) 0.06087(15) 0.0317(5) Uani 1 1 d .
H1BA H 1.2358 0.7902 0.0253 0.048 Uiso 1 1 calc GR
O2B O 0.9612(3) 0.5911(2) 0.21594(13) 0.0223(5) Uani 1 1 d .
O3B O 0.6514(3) 0.5334(2) 0.16064(15) 0.0252(5) Uani 1 1 d .
H3BA H 0.5470 0.5413 0.1733 0.038 Uiso 1 1 calc GR
O4B O 0.5344(3) 0.7049(2) 0.26336(13) 0.0215(5) Uani 1 1 d .
H4BA H 0.5042 0.6308 0.2946 0.032 Uiso 1 1 calc GR
O5B O 0.5345(3) 0.4366(2) 0.61961(14) 0.0210(5) Uani 1 1 d .
N1B N 0.6921(3) 0.5314(2) 0.48782(16) 0.0176(6) Uani 1 1 d .
H1BB H 0.6227 0.5070 0.4596 0.021 Uiso 1 1 calc R
N2B N 1.0718(3) 0.7098(3) 0.43582(17) 0.0208(6) Uani 1 1 d .
N3B N 1.0078(3) 0.6357(3) 0.62576(17) 0.0230(6) Uani 1 1 d .
H3BB H 0.9892 0.6112 0.6840 0.028 Uiso 1 1 calc R
H3BC H 1.0954 0.6828 0.5968 0.028 Uiso 1 1 calc R
N4B N 0.7724(3) 0.5314(2) 0.62396(16) 0.0177(6) Uani 1 1 d .
C1B C 1.0083(4) 0.7543(3) 0.0733(2) 0.0274(7) Uani 1 1 d .
H1BC H 0.9693 0.7876 0.0152 0.033 Uiso 1 1 calc R
H1BD H 0.9855 0.8205 0.1041 0.033 Uiso 1 1 calc R
C2B C 0.9166(4) 0.6332(3) 0.12782(18) 0.0211(6) Uani 1 1 d .
H2B H 0.9459 0.5646 0.0986 0.025 Uiso 1 1 calc R
C3B C 0.7275(4) 0.6538(3) 0.14198(19) 0.0194(6) Uani 1 1 d .
H3BD H 0.6891 0.7190 0.0899 0.023 Uiso 1 1 calc R
C4B C 0.7028(4) 0.7008(3) 0.22352(19) 0.0188(6) Uani 1 1 d .
H4BB H 0.7508 0.7885 0.2063 0.023 Uiso 1 1 calc R
C5B C 0.8186(4) 0.6044(3) 0.2798(2) 0.0184(6) Uani 1 1 d .
H5B H 0.7610 0.5202 0.3066 0.022 Uiso 1 1 calc R
C6B C 0.8835(4) 0.6406(3) 0.3502(2) 0.0171(7) Uani 1 1 d .
C7B C 0.8295(4) 0.6031(3) 0.4403(2) 0.0163(6) Uani 1 1 d .
C8B C 0.9392(4) 0.6429(3) 0.4848(2) 0.0176(7) Uani 1 1 d .
C9B C 0.9047(4) 0.6020(3) 0.5821(2) 0.0184(7) Uani 1 1 d .
C10B C 0.6613(4) 0.4974(3) 0.5789(2) 0.0178(7) Uani 1 1 d .
S1C S -0.10264(8) 1.21609(7) 0.68901(5) 0.02013(18) Uani 1 1 d .
O1C O 0.2291(3) 0.9515(2) 0.91820(16) 0.0277(5) Uani 1 1 d .
H1CA H 0.1903 0.9321 0.8787 0.042 Uiso 1 1 calc GR
O2C O 0.2378(3) 1.1942(2) 0.78933(13) 0.0236(5) Uani 1 1 d .
O3C O 0.2683(3) 1.3904(2) 0.89031(16) 0.0300(5) Uani 1 1 d .
H3CA H 0.2231 1.4557 0.9017 0.045 Uiso 1 1 calc GR
O4C O 0.0022(3) 1.4790(2) 0.80058(14) 0.0252(5) Uani 1 1 d .
H4C H -0.0849 1.4905 0.8341 0.038 Uiso 1 1 calc GR
O5C O 0.4341(3) 1.5003(2) 0.40460(14) 0.0225(5) Uani 1 1 d .
N1C N 0.2741(3) 1.4069(2) 0.53533(17) 0.0175(5) Uani 1 1 d .
H1CB H 0.3460 1.4284 0.5636 0.021 Uiso 1 1 calc R
N2C N -0.1138(3) 1.2381(2) 0.58444(17) 0.0197(6) Uani 1 1 d .
N3C N -0.0402(3) 1.3069(3) 0.39309(18) 0.0211(6) Uani 1 1 d .
H3CB H -0.0154 1.3286 0.3350 0.025 Uiso 1 1 calc R
H3CC H -0.1301 1.2616 0.4204 0.025 Uiso 1 1 calc R
N4C N 0.1939(3) 1.4111(3) 0.39790(17) 0.0185(6) Uani 1 1 d .
C1C C 0.1373(4) 1.0588(3) 0.9363(2) 0.0250(7) Uani 1 1 d .
H1CC H 0.1258 1.0497 1.0002 0.030 Uiso 1 1 calc R
H1CD H 0.0235 1.0619 0.9207 0.030 Uiso 1 1 calc R
C2C C 0.2282(4) 1.1812(3) 0.8829(2) 0.0217(7) Uani 1 1 d .
H2C H 0.3445 1.1756 0.8973 0.026 Uiso 1 1 calc R
C3C C 0.1427(4) 1.3016(3) 0.8976(2) 0.0221(7) Uani 1 1 d .
H3CD H 0.0681 1.2823 0.9562 0.027 Uiso 1 1 calc R
C4C C 0.0417(4) 1.3466(3) 0.8216(2) 0.0200(7) Uani 1 1 d .
H4CA H -0.0635 1.2960 0.8364 0.024 Uiso 1 1 calc R
C5C C 0.1606(4) 1.3135(3) 0.7458(2) 0.0181(6) Uani 1 1 d .
H5C H 0.2485 1.3806 0.7199 0.022 Uiso 1 1 calc R
C6C C 0.0791(4) 1.2963(3) 0.6732(2) 0.0184(7) Uani 1 1 d .
C7C C 0.1328(4) 1.3397(3) 0.5822(2) 0.0168(6) Uani 1 1 d .
C8C C 0.0186(4) 1.3058(3) 0.5357(2) 0.0171(6) Uani 1 1 d .
C9C C 0.0581(4) 1.3426(3) 0.4394(2) 0.0180(7) Uani 1 1 d .
C10C C 0.3030(4) 1.4404(3) 0.4448(2) 0.0173(7) Uani 1 1 d .
O1S O 0.8155(4) 0.3353(3) 1.0943(2) 0.0495(8) Uani 1 1 d .
H1SA H 0.7897 0.3610 1.0412 0.074 Uiso 1 1 d G
H1SB H 0.7660 0.3847 1.1245 0.074 Uiso 1 1 d G
O2S O 0.5865(4) 0.3707(2) 0.80844(15) 0.0350(6) Uani 1 1 d .
H2SA H 0.4775 0.3761 0.8167 0.053 Uiso 1 1 d G
H2SB H 0.6262 0.4215 0.7565 0.053 Uiso 1 1 d G
O3S O 0.7042(3) 1.1265(2) 0.90666(15) 0.0257(5) Uani 1 1 d .
H3SA H 0.6815 1.1286 0.9611 0.039 Uiso 1 1 d G
H3SB H 0.6582 1.1927 0.8724 0.039 Uiso 1 1 d G
O4S O 0.7825(3) 0.9965(2) 0.21241(15) 0.0294(5) Uani 1 1 d .
H4SA H 0.7385 0.9821 0.2677 0.044 Uiso 1 1 d G
H4SB H 0.8720 1.0424 0.2010 0.044 Uiso 1 1 d G
O5S O 0.1826(3) 0.6252(2) 0.91219(17) 0.0341(6) Uani 1 1 d .
H5SA H 0.1559 0.6931 0.8715 0.051 Uiso 1 1 d G
H5SB H 0.1946 0.6460 0.9589 0.051 Uiso 1 1 d G
O6S O 0.0888(4) 0.8716(3) 0.80638(15) 0.0380(6) Uani 1 1 d .
H6SB H 0.1279 0.9195 0.7534 0.057 Uiso 1 1 d G
H6SA H -0.0201 0.8775 0.8151 0.057 Uiso 1 1 d G
O7S O 0.3151(3) 1.5207(2) 0.20895(15) 0.0248(5) Uani 1 1 d .
H7SA H 0.2656 1.5868 0.1766 0.037 Uiso 1 1 d G
H7SB H 0.2696 1.5054 0.2642 0.037 Uiso 1 1 d G
loop_
_atom_site_aniso_label
_atom_site_aniso_U_11
_atom_site_aniso_U_22
_atom_site_aniso_U_33
_atom_site_aniso_U_23
_atom_site_aniso_U_13
_atom_site_aniso_U_12
S1 0.0198(4) 0.0240(4) 0.0151(4) -0.0054(3) -0.0024(3) -0.0032(3)
O1 0.0321(13) 0.0250(12) 0.0322(13) -0.0119(10) -0.0048(10) 0.0025(10)
O2 0.0331(13) 0.0301(12) 0.0189(11) -0.0098(9) -0.0096(9) 0.0130(10)
O3 0.0344(13) 0.0264(12) 0.0424(14) -0.0182(11) -0.0207(11) 0.0083(11)
O4 0.0244(11) 0.0208(11) 0.0230(11) -0.0066(9) -0.0038(9) 0.0042(9)
O5 0.0191(12) 0.0341(13) 0.0206(11) -0.0058(10) -0.0013(9) -0.0050(10)
N1 0.0148(13) 0.0255(14) 0.0184(13) -0.0090(11) -0.0038(10) -0.0022(11)
N2 0.0208(13) 0.0210(14) 0.0161(13) -0.0070(11) -0.0028(11) -0.0008(11)
N3 0.0222(13) 0.0219(13) 0.0156(12) -0.0064(11) -0.0032(11) -0.0054(11)
N4 0.0194(14) 0.0208(13) 0.0160(13) -0.0061(11) -0.0027(11) 0.0013(11)
C1 0.0316(18) 0.0278(17) 0.0263(16) -0.0102(14) -0.0038(14) 0.0060(15)
C2 0.0290(17) 0.0267(17) 0.0199(15) -0.0124(13) -0.0095(13) 0.0044(14)
C3 0.0268(17) 0.0236(16) 0.0225(16) -0.0108(13) -0.0079(13) 0.0048(14)
C4 0.0214(15) 0.0209(15) 0.0173(14) -0.0075(12) -0.0045(12) 0.0005(12)
C5 0.0166(15) 0.0235(16) 0.0167(15) -0.0069(13) -0.0038(12) 0.0021(13)
C6 0.0176(15) 0.0191(15) 0.0165(15) -0.0067(12) -0.0039(12) 0.0031(13)
C7 0.0172(15) 0.0162(15) 0.0193(15) -0.0080(12) -0.0049(12) 0.0036(12)
C8 0.0149(15) 0.0159(14) 0.0170(15) -0.0077(12) -0.0023(12) 0.0008(12)
C9 0.0191(15) 0.0142(14) 0.0164(15) -0.0062(12) -0.0033(12) 0.0048(12)
C10 0.0177(16) 0.0191(16) 0.0194(15) -0.0075(13) -0.0031(13) 0.0020(13)
S1A 0.0226(4) 0.0244(4) 0.0167(4) -0.0038(3) -0.0025(3) -0.0058(3)
O1A 0.0251(12) 0.0451(14) 0.0227(11) -0.0067(10) -0.0034(9) -0.0030(11)
O2A 0.0310(12) 0.0252(11) 0.0180(10) -0.0079(9) -0.0082(9) 0.0052(9)
O3A 0.0221(11) 0.0263(11) 0.0271(11) -0.0095(9) -0.0077(9) 0.0026(9)
O4A 0.0310(12) 0.0235(11) 0.0320(12) -0.0109(10) -0.0106(10) 0.0040(10)
O5A 0.0187(11) 0.0255(11) 0.0191(11) -0.0052(9) -0.0026(9) -0.0008(9)
N1A 0.0171(13) 0.0211(13) 0.0165(13) -0.0050(11) -0.0045(10) 0.0002(11)
N2A 0.0203(13) 0.0214(14) 0.0208(14) -0.0059(11) -0.0060(11) -0.0025(11)
N3A 0.0234(14) 0.0236(14) 0.0168(13) -0.0042(11) -0.0057(11) -0.0043(12)
N4A 0.0198(13) 0.0172(13) 0.0168(13) -0.0053(11) -0.0033(11) 0.0004(11)
C1A 0.0310(17) 0.0313(17) 0.0219(15) -0.0099(13) -0.0078(13) 0.0029(15)
C2A 0.0268(16) 0.0242(16) 0.0192(14) -0.0058(12) -0.0069(12) -0.0016(13)
C3A 0.0206(16) 0.0238(16) 0.0158(14) -0.0044(12) -0.0036(12) -0.0007(13)
C4A 0.0250(17) 0.0230(16) 0.0219(16) -0.0075(13) -0.0058(13) -0.0014(13)
C5A 0.0209(16) 0.0205(16) 0.0203(15) -0.0068(13) -0.0032(13) -0.0018(13)
C6A 0.0204(16) 0.0164(15) 0.0186(16) -0.0035(13) -0.0021(13) -0.0001(13)
C7A 0.0177(15) 0.0166(15) 0.0187(15) -0.0053(12) -0.0039(12) 0.0031(12)
C8A 0.0214(16) 0.0144(14) 0.0181(15) -0.0038(12) -0.0044(13) 0.0024(13)
C9A 0.0232(17) 0.0135(15) 0.0184(16) -0.0057(12) -0.0056(13) 0.0034(13)
C10A 0.0192(16) 0.0171(15) 0.0157(15) -0.0040(12) -0.0022(13) 0.0042(13)
S1B 0.0204(4) 0.0240(4) 0.0163(4) -0.0037(3) -0.0030(3) -0.0055(3)
O1B 0.0239(12) 0.0378(13) 0.0299(12) -0.0072(10) 0.0038(10) -0.0100(10)
O2B 0.0178(10) 0.0318(12) 0.0173(10) -0.0088(9) -0.0022(8) 0.0046(9)
O3B 0.0185(11) 0.0318(12) 0.0299(12) -0.0171(10) -0.0001(9) -0.0041(9)
O4B 0.0193(10) 0.0218(11) 0.0218(10) -0.0064(8) -0.0005(8) 0.0030(9)
O5B 0.0208(11) 0.0223(11) 0.0182(11) -0.0037(9) -0.0022(9) -0.0026(9)
N1B 0.0173(13) 0.0204(13) 0.0155(13) -0.0047(10) -0.0047(10) 0.0003(11)
N2B 0.0220(14) 0.0222(14) 0.0194(13) -0.0055(11) -0.0070(11) -0.0030(12)
N3B 0.0278(15) 0.0241(14) 0.0174(13) -0.0038(11) -0.0072(11) -0.0057(12)
N4B 0.0217(13) 0.0167(13) 0.0158(13) -0.0066(11) -0.0031(10) 0.0004(11)
C1B 0.0229(16) 0.0347(18) 0.0230(15) -0.0070(14) -0.0008(13) -0.0037(14)
C2B 0.0216(16) 0.0277(16) 0.0152(14) -0.0083(12) -0.0027(12) 0.0002(13)
C3B 0.0204(15) 0.0237(16) 0.0152(14) -0.0070(12) -0.0041(12) 0.0004(13)
C4B 0.0205(15) 0.0187(14) 0.0166(14) -0.0045(12) -0.0035(12) 0.0013(12)
C5B 0.0187(15) 0.0202(15) 0.0162(14) -0.0060(12) -0.0016(12) 0.0008(12)
C6B 0.0178(15) 0.0141(15) 0.0178(15) -0.0031(12) -0.0021(12) 0.0005(12)
C7B 0.0162(15) 0.0164(15) 0.0154(15) -0.0034(12) -0.0045(11) 0.0032(12)
C8B 0.0197(16) 0.0157(15) 0.0177(15) -0.0050(12) -0.0041(12) 0.0006(13)
C9B 0.0247(17) 0.0141(14) 0.0178(16) -0.0053(12) -0.0072(13) 0.0030(13)
C10B 0.0202(17) 0.0149(15) 0.0162(15) -0.0032(12) -0.0016(13) 0.0039(13)
S1C 0.0188(4) 0.0216(4) 0.0184(4) -0.0039(3) -0.0012(3) -0.0037(3)
O1C 0.0265(12) 0.0199(11) 0.0341(13) -0.0083(10) 0.0022(10) 0.0003(10)
O2C 0.0293(12) 0.0233(11) 0.0178(10) -0.0064(9) -0.0054(9) 0.0081(10)
O3C 0.0315(13) 0.0236(12) 0.0414(14) -0.0157(11) -0.0145(11) 0.0051(10)
O4C 0.0294(12) 0.0230(11) 0.0224(11) -0.0076(9) -0.0029(9) 0.0073(10)
O5C 0.0170(11) 0.0300(13) 0.0186(11) -0.0045(10) -0.0014(9) -0.0057(10)
N1C 0.0160(13) 0.0213(13) 0.0162(13) -0.0066(11) -0.0024(10) -0.0037(11)
N2C 0.0180(13) 0.0185(13) 0.0214(14) -0.0043(11) -0.0023(11) -0.0017(11)
N3C 0.0209(14) 0.0227(14) 0.0208(13) -0.0058(11) -0.0061(11) -0.0050(11)
N4C 0.0162(13) 0.0201(13) 0.0195(13) -0.0056(11) -0.0045(10) 0.0014(11)
C1C 0.0250(17) 0.0225(16) 0.0258(16) -0.0065(13) -0.0028(13) 0.0038(13)
C2C 0.0244(16) 0.0237(16) 0.0187(14) -0.0083(12) -0.0052(12) 0.0017(13)
C3C 0.0258(17) 0.0223(16) 0.0182(15) -0.0066(12) -0.0029(13) -0.0003(13)
C4C 0.0194(15) 0.0196(15) 0.0208(15) -0.0068(12) -0.0013(12) 0.0002(12)
C5C 0.0169(15) 0.0199(15) 0.0156(14) -0.0033(12) -0.0024(11) 0.0017(12)
C6C 0.0164(15) 0.0168(15) 0.0208(16) -0.0053(13) -0.0015(12) 0.0031(13)
C7C 0.0162(15) 0.0141(15) 0.0205(15) -0.0059(12) -0.0029(12) 0.0015(12)
C8C 0.0166(15) 0.0154(14) 0.0196(16) -0.0057(12) -0.0038(12) 0.0022(12)
C9C 0.0186(15) 0.0151(15) 0.0197(16) -0.0052(12) -0.0038(12) 0.0050(13)
C10C 0.0169(16) 0.0171(15) 0.0183(15) -0.0063(13) -0.0022(13) 0.0010(13)
O1S 0.066(2) 0.0443(16) 0.0501(17) -0.0262(14) -0.0292(15) 0.0270(15)
O2S 0.0506(16) 0.0315(13) 0.0190(11) -0.0052(10) -0.0028(10) 0.0106(12)
O3S 0.0301(12) 0.0256(11) 0.0205(11) -0.0072(9) -0.0007(9) 0.0004(10)
O4S 0.0293(13) 0.0359(13) 0.0222(11) -0.0068(10) -0.0023(9) -0.0092(11)
O5S 0.0453(15) 0.0283(12) 0.0304(13) -0.0110(10) -0.0094(12) 0.0071(12)
O6S 0.0576(17) 0.0344(14) 0.0192(11) -0.0068(10) -0.0065(11) 0.0160(13)
O7S 0.0190(11) 0.0296(12) 0.0259(11) -0.0088(10) -0.0025(9) -0.0007(9)
loop_
_atom_type_symbol
_atom_type_description
_atom_type_scat_dispersion_real
_atom_type_scat_dispersion_imag
_atom_type_scat_source
C C 0.0181 0.0091 'International Tables Vol C Tables 4.2.6.8 and 6.1.1.4'
H H 0.0000 0.0000 'International Tables Vol C Tables 4.2.6.8 and 6.1.1.4'
N N 0.0311 0.0180 'International Tables Vol C Tables 4.2.6.8 and 6.1.1.4'
O O 0.0492 0.0322 'International Tables Vol C Tables 4.2.6.8 and 6.1.1.4'
S S 0.3331 0.5567 'International Tables Vol C Tables 4.2.6.8 and 6.1.1.4'
loop_
_geom_angle_atom_site_label_1
_geom_angle_atom_site_label_2
_geom_angle_atom_site_label_3
_geom_angle
N2 S1 C6 97.29(14)
C1 O1 H1 109.5
C5 O2 C2 110.4(2)
C3 O3 H3 109.5
C4 O4 H4 109.5
C7 N1 H1B 119.6
C7 N1 C10 120.8(3)
C10 N1 H1B 119.6
C8 N2 S1 107.9(2)
H3B N3 H3C 120.0
C9 N3 H3B 120.0
C9 N3 H3C 120.0
C9 N4 C10 121.1(3)
O1 C1 H1C 109.8
O1 C1 H1D 109.8
O1 C1 C2 109.5(3)
H1C C1 H1D 108.2
C2 C1 H1C 109.8
C2 C1 H1D 109.8
O2 C2 C1 108.4(3)
O2 C2 H2 109.0
O2 C2 C3 106.1(2)
C1 C2 H2 109.0
C1 C2 C3 115.1(3)
C3 C2 H2 109.0
O3 C3 C2 108.8(3)
O3 C3 H3D 111.3
O3 C3 C4 111.5(3)
C2 C3 H3D 111.3
C4 C3 C2 102.4(2)
C4 C3 H3D 111.3
O4 C4 C3 113.4(3)
O4 C4 H4B 110.0
O4 C4 C5 110.9(2)
C3 C4 H4B 110.0
C3 C4 C5 102.4(2)
C5 C4 H4B 110.0
O2 C5 C4 104.5(2)
O2 C5 H5 109.4
O2 C5 C6 109.9(3)
C4 C5 H5 109.4
C6 C5 C4 114.1(3)
C6 C5 H5 109.4
C5 C6 S1 124.7(2)
C7 C6 S1 107.1(2)
C7 C6 C5 128.2(3)
N1 C7 C6 130.1(3)
N1 C7 C8 119.2(3)
C6 C7 C8 110.7(3)
N2 C8 C7 117.1(3)
N2 C8 C9 125.2(3)
C7 C8 C9 117.7(3)
N3 C9 N4 121.2(3)
N3 C9 C8 118.5(3)
N4 C9 C8 120.2(3)
O5 C10 N1 118.8(3)
O5 C10 N4 120.3(3)
N4 C10 N1 120.9(3)
N2A S1A C6A 97.13(15)
C1A O1A H1A 109.5
C5A O2A C2A 108.3(2)
C3A O3A H3A 109.5
C4A O4A H4A 109.5
C7A N1A H1AA 119.6
C10A N1A H1AA 119.6
C10A N1A C7A 120.8(3)
C8A N2A S1A 107.9(2)
H3AA N3A H3AB 120.0
C9A N3A H3AA 120.0
C9A N3A H3AB 120.0
C9A N4A C10A 121.5(3)
O1A C1A H1AB 109.2
O1A C1A H1AC 109.2
O1A C1A C2A 111.9(3)
H1AB C1A H1AC 107.9
C2A C1A H1AB 109.2
C2A C1A H1AC 109.2
O2A C2A C1A 107.1(2)
O2A C2A H2A 108.9
O2A C2A C3A 106.8(2)
C1A C2A H2A 108.9
C1A C2A C3A 116.0(3)
C3A C2A H2A 108.9
O3A C3A C2A 107.5(3)
O3A C3A H3AC 111.3
O3A C3A C4A 111.6(2)
C2A C3A H3AC 111.3
C4A C3A C2A 103.6(2)
C4A C3A H3AC 111.3
O4A C4A C3A 111.9(3)
O4A C4A H4AA 109.9
O4A C4A C5A 112.8(2)
C3A C4A H4AA 109.9
C5A C4A C3A 102.3(3)
C5A C4A H4AA 109.9
O2A C5A C4A 104.0(2)
O2A C5A H5A 109.0
O2A C5A C6A 109.7(2)
C4A C5A H5A 109.0
C6A C5A C4A 115.9(3)
C6A C5A H5A 109.0
C5A C6A S1A 125.0(2)
C7A C6A S1A 106.4(3)
C7A C6A C5A 128.6(3)
N1A C7A C8A 119.4(3)
C6A C7A N1A 128.4(3)
C6A C7A C8A 112.2(3)
N2A C8A C7A 116.4(3)
N2A C8A C9A 125.3(3)
C7A C8A C9A 118.3(3)
N3A C9A N4A 120.7(3)
N3A C9A C8A 119.6(3)
N4A C9A C8A 119.7(3)
O5A C10A N1A 119.8(3)
O5A C10A N4A 119.9(3)
N1A C10A N4A 120.3(3)
N2B S1B C6B 96.72(15)
C1B O1B H1BA 109.5
C5B O2B C2B 110.0(2)
C3B O3B H3BA 109.5
C4B O4B H4BA 109.5
C7B N1B H1BB 119.4
C7B N1B C10B 121.1(3)
C10B N1B H1BB 119.4
C8B N2B S1B 107.7(2)
H3BB N3B H3BC 120.0
C9B N3B H3BB 120.0
C9B N3B H3BC 120.0
C9B N4B C10B 121.8(3)
O1B C1B H1BC 109.9
O1B C1B H1BD 109.9
O1B C1B C2B 108.7(3)
H1BC C1B H1BD 108.3
C2B C1B H1BC 109.9
C2B C1B H1BD 109.9
O2B C2B C1B 110.1(3)
O2B C2B H2B 109.8
O2B C2B C3B 105.0(2)
C1B C2B H2B 109.8
C1B C2B C3B 112.2(2)
C3B C2B H2B 109.8
O3B C3B C2B 107.8(2)
O3B C3B H3BD 111.9
O3B C3B C4B 111.7(2)
C2B C3B H3BD 111.9
C2B C3B C4B 101.1(2)
C4B C3B H3BD 111.9
O4B C4B C3B 114.3(3)
O4B C4B H4BB 108.9
O4B C4B C5B 115.9(2)
C3B C4B H4BB 108.9
C3B C4B C5B 99.6(2)
C5B C4B H4BB 108.9
O2B C5B C4B 103.6(2)
O2B C5B H5B 109.1
O2B C5B C6B 107.2(3)
C4B C5B H5B 109.1
C6B C5B C4B 118.2(3)
C6B C5B H5B 109.1
C5B C6B S1B 123.3(2)
C7B C6B S1B 107.0(2)
C7B C6B C5B 129.3(3)
N1B C7B C6B 128.9(3)
N1B C7B C8B 119.6(3)
C6B C7B C8B 111.4(3)
N2B C8B C7B 117.2(3)
N2B C8B C9B 125.0(3)
C7B C8B C9B 117.7(3)
N3B C9B N4B 121.2(3)
N3B C9B C8B 119.0(3)
N4B C9B C8B 119.8(3)
O5B C10B N1B 119.7(3)
O5B C10B N4B 120.3(3)
N1B C10B N4B 119.9(3)
N2C S1C C6C 97.46(15)
C1C O1C H1CA 109.5
C5C O2C C2C 109.6(2)
C3C O3C H3CA 109.5
C4C O4C H4C 109.5
C7C N1C H1CB 119.9
C10C N1C H1CB 119.9
C10C N1C C7C 120.2(3)
C8C N2C S1C 108.0(2)
H3CB N3C H3CC 120.0
C9C N3C H3CB 120.0
C9C N3C H3CC 120.0
C9C N4C C10C 120.6(3)
O1C C1C H1CC 109.7
O1C C1C H1CD 109.7
O1C C1C C2C 109.7(2)
H1CC C1C H1CD 108.2
C2C C1C H1CC 109.7
C2C C1C H1CD 109.7
O2C C2C C1C 108.4(3)
O2C C2C H2C 109.0
O2C C2C C3C 106.9(2)
C1C C2C H2C 109.0
C1C C2C C3C 114.3(3)
C3C C2C H2C 109.0
O3C C3C C2C 108.4(3)
O3C C3C H3CD 111.4
O3C C3C C4C 111.8(2)
C2C C3C H3CD 111.4
C2C C3C C4C 102.1(2)
C4C C3C H3CD 111.4
O4C C4C C3C 112.3(3)
O4C C4C H4CA 110.0
O4C C4C C5C 112.2(2)
C3C C4C H4CA 110.0
C3C C4C C5C 102.2(2)
C5C C4C H4CA 110.0
O2C C5C C4C 103.7(2)
O2C C5C H5C 109.3
O2C C5C C6C 109.1(2)
C4C C5C H5C 109.3
C6C C5C C4C 115.9(3)
C6C C5C H5C 109.3
C5C C6C S1C 124.8(2)
C7C C6C S1C 106.7(2)
C7C C6C C5C 128.5(3)
N1C C7C C6C 129.7(3)
N1C C7C C8C 119.2(3)
C6C C7C C8C 111.1(3)
N2C C8C C7C 116.7(3)
N2C C8C C9C 125.3(3)
C7C C8C C9C 117.9(3)
N3C C9C N4C 119.8(3)
N3C C9C C8C 120.2(3)
N4C C9C C8C 119.9(3)
O5C C10C N1C 118.2(3)
O5C C10C N4C 119.7(3)
N4C C10C N1C 122.1(3)
H1SA O1S H1SB 109.5
H2SA O2S H2SB 109.5
H3SA O3S H3SB 109.4
H4SA O4S H4SB 109.5
H5SA O5S H5SB 109.5
H6SB O6S H6SA 109.5
H7SA O7S H7SB 109.5
loop_
_geom_bond_atom_site_label_1
_geom_bond_atom_site_label_2
_geom_bond_distance
S1 N2 1.638(3)
S1 C6 1.705(3)
O1 H1 0.8400
O1 C1 1.431(4)
O2 C2 1.450(4)
O2 C5 1.438(4)
O3 H3 0.8400
O3 C3 1.418(4)
O4 H4 0.8400
O4 C4 1.418(4)
O5 C10 1.241(4)
N1 H1B 0.8800
N1 C7 1.374(4)
N1 C10 1.378(4)
N2 C8 1.329(4)
N3 H3B 0.8800
N3 H3C 0.8800
N3 C9 1.315(4)
N4 C9 1.326(4)
N4 C10 1.370(4)
C1 H1C 0.9900
C1 H1D 0.9900
C1 C2 1.507(5)
C2 H2 1.0000
C2 C3 1.526(4)
C3 H3D 1.0000
C3 C4 1.521(4)
C4 H4B 1.0000
C4 C5 1.535(4)
C5 H5 1.0000
C5 C6 1.495(4)
C6 C7 1.386(4)
C7 C8 1.414(5)
C8 C9 1.459(4)
S1A N2A 1.638(3)
S1A C6A 1.714(3)
O1A H1A 0.8400
O1A C1A 1.413(4)
O2A C2A 1.441(4)
O2A C5A 1.428(4)
O3A H3A 0.8400
O3A C3A 1.420(4)
O4A H4A 0.8400
O4A C4A 1.412(4)
O5A C10A 1.235(4)
N1A H1AA 0.8800
N1A C7A 1.381(4)
N1A C10A 1.373(4)
N2A C8A 1.341(4)
N3A H3AA 0.8800
N3A H3AB 0.8800
N3A C9A 1.310(4)
N4A C9A 1.320(4)
N4A C10A 1.383(4)
C1A H1AB 0.9900
C1A H1AC 0.9900
C1A C2A 1.510(4)
C2A H2A 1.0000
C2A C3A 1.539(4)
C3A H3AC 1.0000
C3A C4A 1.526(4)
C4A H4AA 1.0000
C4A C5A 1.524(4)
C5A H5A 1.0000
C5A C6A 1.498(5)
C6A C7A 1.377(4)
C7A C8A 1.396(5)
C8A C9A 1.462(4)
S1B N2B 1.646(3)
S1B C6B 1.710(3)
O1B H1BA 0.8400
O1B C1B 1.434(4)
O2B C2B 1.449(3)
O2B C5B 1.441(3)
O3B H3BA 0.8400
O3B C3B 1.419(4)
O4B H4BA 0.8400
O4B C4B 1.408(4)
O5B C10B 1.232(4)
N1B H1BB 0.8800
N1B C7B 1.376(4)
N1B C10B 1.377(4)
N2B C8B 1.330(4)
N3B H3BB 0.8800
N3B H3BC 0.8800
N3B C9B 1.312(4)
N4B C9B 1.319(4)
N4B C10B 1.379(4)
C1B H1BC 0.9900
C1B H1BD 0.9900
C1B C2B 1.508(4)
C2B H2B 1.0000
C2B C3B 1.520(4)
C3B H3BD 1.0000
C3B C4B 1.530(4)
C4B H4BB 1.0000
C4B C5B 1.544(4)
C5B H5B 1.0000
C5B C6B 1.489(5)
C6B C7B 1.379(4)
C7B C8B 1.396(5)
C8B C9B 1.471(4)
S1C N2C 1.641(3)
S1C C6C 1.704(3)
O1C H1CA 0.8400
O1C C1C 1.431(4)
O2C C2C 1.455(4)
O2C C5C 1.438(4)
O3C H3CA 0.8400
O3C C3C 1.419(4)
O4C H4C 0.8400
O4C C4C 1.415(4)
O5C C10C 1.253(4)
N1C H1CB 0.8800
N1C C7C 1.376(4)
N1C C10C 1.369(4)
N2C C8C 1.332(4)
N3C H3CB 0.8800
N3C H3CC 0.8800
N3C C9C 1.327(4)
N4C C9C 1.329(4)
N4C C10C 1.365(4)
C1C H1CC 0.9900
C1C H1CD 0.9900
C1C C2C 1.512(5)
C2C H2C 1.0000
C2C C3C 1.516(4)
C3C H3CD 1.0000
C3C C4C 1.522(4)
C4C H4CA 1.0000
C4C C5C 1.540(4)
C5C H5C 1.0000
C5C C6C 1.499(5)
C6C C7C 1.392(4)
C7C C8C 1.413(5)
C8C C9C 1.459(4)
O1S H1SA 0.8700
O1S H1SB 0.8703
O2S H2SA 0.8701
O2S H2SB 0.8701
O3S H3SA 0.8699
O3S H3SB 0.8703
O4S H4SA 0.8699
O4S H4SB 0.8699
O5S H5SA 0.8700
O5S H5SB 0.8703
O6S H6SB 0.8699
O6S H6SA 0.8700
O7S H7SA 0.8700
O7S H7SB 0.8701
loop_
_geom_hbond_atom_site_label_D
_geom_hbond_atom_site_label_H
_geom_hbond_atom_site_label_A
_geom_hbond_distance_DH
_geom_hbond_distance_HA
_geom_hbond_distance_DA
_geom_hbond_angle_DHA
_geom_hbond_site_symmetry_A
O1 H1 O2S 0.84 1.84 2.681(4) 175.5 .
O3 H3 O3S 0.84 1.88 2.694(3) 162.2 .
O4 H4 O1C 0.84 2.02 2.786(3) 151.4 .
O4 H4 O2C 0.84 2.52 3.134(3) 131.2 .
N1 H1B O5A 0.88 1.95 2.807(4) 165.5 1_655
N3 H3B O2A 0.88 2.32 2.984(3) 132.3 .
N3 H3B O4B 0.88 2.30 2.899(3) 124.9 .
N3 H3C N2B 0.88 2.31 3.086(4) 146.5 1_455
O1A H1A O4S 0.84 1.93 2.736(3) 160.1 .
O3A H3A O1S 0.84 1.97 2.733(3) 150.2 1_464
O4A H4A O7S 0.84 1.88 2.705(3) 167.8 .
N1A H1AA O5 0.88 1.91 2.769(4) 164.5 1_455
N3A H3AA O4 0.88 2.05 2.861(3) 153.5 .
N3A H3AB N2C 0.88 2.40 3.167(4) 146.4 1_655
O1B H1BA O1C 0.84 2.06 2.803(3) 147.3 1_654
O3B H3BA O7S 0.84 1.87 2.700(3) 167.8 1_545
O4B H4BA O5C 0.84 1.93 2.707(3) 154.4 1_545
N1B H1BB O5C 0.88 1.90 2.753(4) 161.7 1_545
N3B H3BB O4C 0.88 2.00 2.802(3) 150.9 1_645
N3B H3BC N2 0.88 2.41 3.178(4) 146.5 1_655
O1C H1CA O6S 0.84 1.83 2.660(4) 171.5 .
O3C H3CA O5S 0.84 1.92 2.736(3) 163.4 1_565
O4C H4C O1 0.84 2.02 2.820(3) 159.5 1_465
O4C H4C O2 0.84 2.50 3.027(3) 122.1 1_465
N1C H1CB O5B 0.88 1.92 2.776(4) 164.9 1_565
N3C H3CB O4A 0.88 2.28 3.092(3) 154.2 .
O1S H1SA O1 0.87 1.98 2.838(4) 168.4 .
O1S H1SB O3B 0.87 2.02 2.863(3) 164.1 1_556
O2S H2SA O3C 0.87 1.92 2.713(4) 150.6 1_545
O2S H2SB O5B 0.87 2.39 2.993(3) 126.3 .
O2S H2SB N4B 0.87 2.27 3.128(4) 169.5 .
O3S H3SA O1A 0.87 1.89 2.735(3) 162.0 1_556
O3S H3SB O2S 0.87 2.01 2.855(3) 164.7 1_565
O4S H4SA N4 0.87 2.08 2.934(3) 166.0 .
O4S H4SB O3A 0.87 1.94 2.764(3) 158.3 1_655
O5S H5SA O6S 0.87 2.00 2.848(3) 163.4 .
O5S H5SB O1B 0.87 2.07 2.928(4) 167.6 1_456
O6S H6SB O5A 0.87 2.32 2.944(3) 128.4 .
O6S H6SB N4A 0.87 2.30 3.165(4) 169.7 .
O6S H6SA O3 0.87 1.94 2.722(4) 148.3 1_455
O7S H7SA O1B 0.87 2.18 3.015(3) 160.7 1_465
O7S H7SB N4C 0.87 2.08 2.921(3) 161.6 .
