#------------------------------------------------------------------------------
#$Date: 2017-08-29 05:55:41 +0300 (Tue, 29 Aug 2017) $
#$Revision: 199981 $
#$URL: file:///home/coder/svn-repositories/cod/cif/1/54/69/1546902.cif $
#------------------------------------------------------------------------------
#
# This file is available in the Crystallography Open Database (COD),
# http://www.crystallography.net/
#
# All data on this site have been placed in the public domain by the
# contributors.
#
data_1546902
_journal_paper_doi               10.1039/C7DT02570J
_chemical_absolute_configuration ad
_chemical_formula_moiety         'C34 H40 B N P, C F3 O3 S, C H2 Cl2'
_chemical_formula_sum            'C36 H42 B Cl2 F3 N O3 P S'
_chemical_formula_weight         738.44
_chemical_name_systematic
'4,4-di-tert-butyl-1,2,2,5-tetraphenyl-3,4-dihydro-2H-1\l^4^,4,2\l^4^-azaphosphaborol-4-ium trifluoromethanesulfonate dichloromethane solvate'
_space_group_crystal_system      orthorhombic
_space_group_IT_number           19
_space_group_name_Hall           'P 2ac 2ab'
_space_group_name_H-M_alt        'P 21 21 21'
_symmetry_space_group_name_Hall  'P 2ac 2ab'
_symmetry_space_group_name_H-M   'P 21 21 21'
_atom_sites_solution_hydrogens   mixed
_atom_sites_solution_primary     direct
_atom_sites_solution_secondary   difmap
_audit_creation_method           SHELXL-2014/7
_audit_update_record
;
2017-06-14 deposited with the CCDC.
2017-08-28 downloaded from the CCDC.
;
_cell_angle_alpha                90
_cell_angle_beta                 90
_cell_angle_gamma                90
_cell_formula_units_Z            4
_cell_length_a                   11.0882(5)
_cell_length_b                   17.6065(7)
_cell_length_c                   18.5479(9)
_cell_measurement_reflns_used    9672
_cell_measurement_temperature    123(2)
_cell_measurement_theta_max      27.5
_cell_measurement_theta_min      2.2
_cell_volume                     3621.0(3)
_computing_cell_refinement       APEX3
_computing_data_collection       APEX3
_computing_data_reduction        SAINT
_computing_molecular_graphics    shelxtl
_computing_publication_material  publCIF
_computing_structure_refinement  'SHELXL-2014/7 (Sheldrick, 2014)'
_computing_structure_solution    SHELXS-97
_diffrn_ambient_temperature      123(2)
_diffrn_detector_area_resol_mean 10.4167
_diffrn_measured_fraction_theta_full 0.999
_diffrn_measured_fraction_theta_max 0.999
_diffrn_measurement_device_type  'Bruker D8 VENTURE with Photon100 detector'
_diffrn_measurement_method       'rotation in \f and \w, 1\%, shutterless'
_diffrn_radiation_type           MoK\a
_diffrn_radiation_wavelength     0.71073
_diffrn_reflns_av_R_equivalents  0.0444
_diffrn_reflns_av_unetI/netI     0.0160
_diffrn_reflns_Laue_measured_fraction_full 0.999
_diffrn_reflns_Laue_measured_fraction_max 0.999
_diffrn_reflns_limit_h_max       14
_diffrn_reflns_limit_h_min       -14
_diffrn_reflns_limit_k_max       22
_diffrn_reflns_limit_k_min       -22
_diffrn_reflns_limit_l_max       24
_diffrn_reflns_limit_l_min       -24
_diffrn_reflns_number            157311
_diffrn_reflns_point_group_measured_fraction_full 1.000
_diffrn_reflns_point_group_measured_fraction_max 0.998
_diffrn_reflns_theta_full        25.242
_diffrn_reflns_theta_max         27.552
_diffrn_reflns_theta_min         2.140
_diffrn_source                   'INCOATEC microfocus sealed tube'
_exptl_absorpt_coefficient_mu    0.333
_exptl_absorpt_correction_T_max  0.9420
_exptl_absorpt_correction_T_min  0.8961
_exptl_absorpt_correction_type   multi-scan
_exptl_absorpt_process_details   'SADABS (Sheldrick, 2014)'
_exptl_crystal_colour            colourless
_exptl_crystal_density_diffrn    1.355
_exptl_crystal_description       blocks
_exptl_crystal_F_000             1544
_exptl_crystal_size_max          0.340
_exptl_crystal_size_mid          0.300
_exptl_crystal_size_min          0.200
_refine_diff_density_max         0.947
_refine_diff_density_min         -0.705
_refine_diff_density_rms         0.071
_refine_ls_abs_structure_details
;
 Flack x determined using 3342 quotients [(I+)-(I-)]/[(I+)+(I-)]
 (Parsons, Flack and Wagner, Acta Cryst. B69 (2013) 249-259).
;
_refine_ls_abs_structure_Flack   -0.003(9)
_refine_ls_extinction_method     none
_refine_ls_goodness_of_fit_ref   1.023
_refine_ls_hydrogen_treatment    constr
_refine_ls_matrix_type           full
_refine_ls_number_parameters     414
_refine_ls_number_reflns         8349
_refine_ls_number_restraints     151
_refine_ls_restrained_S_all      1.044
_refine_ls_R_factor_all          0.0591
_refine_ls_R_factor_gt           0.0539
_refine_ls_shift/su_max          0.000
_refine_ls_shift/su_mean         0.000
_refine_ls_structure_factor_coef Fsqd
_refine_ls_weighting_details
'w=1/[\s^2^(Fo^2^)+(0.0590P)^2^+5.4513P] where P=(Fo^2^+2Fc^2^)/3'
_refine_ls_weighting_scheme      calc
_refine_ls_wR_factor_gt          0.1299
_refine_ls_wR_factor_ref         0.1350
_reflns_Friedel_coverage         0.798
_reflns_Friedel_fraction_full    1.000
_reflns_Friedel_fraction_max     0.998
_reflns_number_gt                7827
_reflns_number_total             8349
_reflns_threshold_expression     'I > 2\s(I)'
_cod_data_source_file            c7dt02570j2.cif
_cod_data_source_block           jcs074_compound_7a
_cod_database_code               1546902
_shelx_shelxl_version_number     2014/7
_shelx_space_group_comment
;
The symmetry employed for this shelxl refinement is uniquely defined
by the following loop, which should always be used as a source of
symmetry information in preference to the above space-group names.
They are only intended as comments.
;
_shelx_estimated_absorpt_t_min   0.895
_shelx_estimated_absorpt_t_max   0.936
_shelx_res_file
;

    jcs074.res created by SHELXL-2014/7


TITL jcs074 in P2(1)2(1)2(1)
CELL 0.71073  11.0882  17.6065  18.5479  90.000  90.000  90.000
ZERR    4.00   0.0005   0.0007   0.0009   0.000   0.000   0.000
LATT -1
SYMM 0.5-X, -Y, 0.5+Z
SYMM -X, 0.5+Y, 0.5-Z
SYMM 0.5+X, 0.5-Y, -Z
SFAC C H B N O F P S CL
UNIT 144 168 4 4 12 12 4 4 8

OMIT     0  10   2

L.S. 12
BOND
BOND $H
ACTA
CONF

TEMP -150
rem colourless blocks
rem sadabs transmission 0.8961/0.9420
SIZE 0.20 0.30 0.34

FMAP 2
PLAN 20

HTAB

EQIV $1 x+1/2, -y+3/2, -z+1
HTAB C3 O2_$1
EQIV $2 -x, y-1/2, -z+1/2
HTAB C7 Cl1A_$2
EQIV $3 -x+1/2, -y+1, z+1/2
HTAB C7 Cl2A_$3
HTAB C9 O3
HTAB C1CA O3A

WGHT    0.059000    5.451300
FVAR       0.14130   0.61482   0.76116   0.58501
P1    7    0.416109    0.564257    0.440602    11.00000    0.01326    0.01345 =
         0.01064    0.00033   -0.00006    0.00023
C1    1    0.353059    0.585449    0.354697    11.00000    0.01708    0.01998 =
         0.01230    0.00104   -0.00475    0.00302
AFIX  23
H1A   2    0.268325    0.567847    0.352751    11.00000   -1.20000
H1B   2    0.354002    0.641015    0.346542    11.00000   -1.20000
AFIX   0
B1    3    0.433517    0.542108    0.291258    11.00000    0.02675    0.01433 =
         0.01145    0.00024   -0.00100    0.00333
N1    4    0.546831    0.505073    0.338760    11.00000    0.02331    0.01245 =
         0.01444    0.00154    0.00423    0.00070
C2    1    0.463161    0.651284    0.488971    11.00000    0.02496    0.01315 =
         0.01410   -0.00289   -0.00025    0.00046
C3    1    0.530144    0.635673    0.559742    11.00000    0.03277    0.02242 =
         0.01676   -0.00353   -0.00830   -0.00121
AFIX  33
H3A   2    0.477505    0.607183    0.592454    11.00000   -1.50000
H3B   2    0.602921    0.605887    0.549774    11.00000   -1.50000
H3C   2    0.552823    0.683968    0.582239    11.00000   -1.50000
AFIX   0
C4    1    0.547253    0.695889    0.438683    11.00000    0.03264    0.02059 =
         0.02353    0.00169    0.00254   -0.00907
AFIX  33
H4A   2    0.505611    0.706307    0.393140    11.00000   -1.50000
H4B   2    0.569869    0.743959    0.461634    11.00000   -1.50000
H4C   2    0.619967    0.665878    0.429168    11.00000   -1.50000
AFIX   0
C5    1    0.348002    0.698100    0.502897    11.00000    0.03549    0.02363 =
         0.02188   -0.00473    0.00271    0.00897
AFIX  33
H5A   2    0.306539    0.707469    0.457092    11.00000   -1.50000
H5B   2    0.294494    0.669893    0.535324    11.00000   -1.50000
H5C   2    0.369769    0.746698    0.525128    11.00000   -1.50000
AFIX   0
C6    1    0.322065    0.494964    0.491296    11.00000    0.01662    0.02165 =
         0.01712    0.00195    0.00364   -0.00215
C7    1    0.332630    0.418607    0.451706    11.00000    0.02741    0.01885 =
         0.02554    0.00271   -0.00210   -0.00698
AFIX  33
H7A   2    0.309469    0.425248    0.401107    11.00000   -1.50000
H7B   2    0.416087    0.400490    0.454302    11.00000   -1.50000
H7C   2    0.279073    0.381375    0.474455    11.00000   -1.50000
AFIX   0
C8    1    0.357884    0.486129    0.570776    11.00000    0.02862    0.02727 =
         0.01891    0.00501    0.00444   -0.00141
AFIX  33
H8A   2    0.350647    0.535276    0.595199    11.00000   -1.50000
H8B   2    0.304431    0.449177    0.594018    11.00000   -1.50000
H8C   2    0.441445    0.468292    0.573866    11.00000   -1.50000
AFIX   0
C9    1    0.189015    0.520898    0.488154    11.00000    0.01409    0.03780 =
         0.03991    0.01013    0.00448   -0.00026
AFIX  33
H9A   2    0.164420    0.526868    0.437722    11.00000   -1.50000
H9B   2    0.137851    0.482721    0.511451    11.00000   -1.50000
H9C   2    0.180404    0.569553    0.513295    11.00000   -1.50000
AFIX  66
SAME 0.002 0.004 C10 C11A C12A C13A C14A C15A
SAME 0.002 0.004 C10 C15A C14A C13A C12A C11A
EADP C11 C11A
EADP C12 C12A
EADP C13 C13A
EADP C14 C14A
EADP C15 C15A
C10   1    0.361712    0.471138    0.250098    11.00000    0.05939    0.01619 =
         0.01676   -0.00139   -0.01456    0.00120
PART 1
C11   1    0.415915    0.426988    0.197091    41.00000    0.03120
AFIX  43
H11   2    0.495428    0.438393    0.181383    41.00000   -1.20000
AFIX  65
C12   1    0.353781    0.366152    0.167065    41.00000    0.02582
AFIX  43
H12   2    0.390827    0.335978    0.130837    41.00000   -1.20000
AFIX  65
C13   1    0.237442    0.349465    0.190047    41.00000    0.02320
AFIX  43
H13   2    0.194976    0.307887    0.169526    41.00000   -1.20000
AFIX  65
C14   1    0.183237    0.393614    0.243054    41.00000    0.02585
AFIX  43
H14   2    0.103725    0.382209    0.258761    41.00000   -1.20000
AFIX  65
C15   1    0.245370    0.454450    0.273080    41.00000    0.03065
AFIX  43
H15   2    0.208324    0.484624    0.309308    41.00000   -1.20000
AFIX   0
PART 2
C11A  1    0.250104    0.438708    0.263749   -41.00000    0.03120
AFIX  43
H11A  2    0.197120    0.460884    0.298056   -41.00000   -1.20000
AFIX   0
C12A  1    0.216538    0.373455    0.226754   -41.00000    0.02582
AFIX  43
H12A  2    0.140522    0.350618    0.236152   -41.00000   -1.20000
AFIX   0
C13A  1    0.293492    0.341401    0.176090   -41.00000    0.02320
AFIX  43
H13A  2    0.271047    0.295757    0.152297   -41.00000   -1.20000
AFIX   0
C14A  1    0.403142    0.375710    0.159996   -41.00000    0.02585
AFIX  43
H14A  2    0.454468    0.354776    0.124121   -41.00000   -1.20000
AFIX   0
C15A  1    0.436844    0.441045    0.197026   -41.00000    0.03065
AFIX  43
H15A  2    0.511238    0.465222    0.186128   -41.00000   -1.20000
AFIX   0
PART 0
C16   1    0.487316    0.604013    0.235288    11.00000    0.03521    0.01477 =
         0.01277   -0.00080    0.00353    0.00734
C17   1    0.588353    0.649524    0.247801    11.00000    0.04234    0.01983 =
         0.01641   -0.00306    0.00431    0.00140
AFIX  43
H17   2    0.631927    0.643016    0.291466    11.00000   -1.20000
AFIX   0
C18   1    0.627793    0.704170    0.198684    11.00000    0.05348    0.01732 =
         0.02841   -0.00400    0.01550   -0.00175
AFIX  43
H18   2    0.697950    0.733363    0.208502    11.00000   -1.20000
AFIX   0
C19   1    0.563698    0.715468    0.135458    11.00000    0.06727    0.01814 =
         0.02405    0.00727    0.01689    0.01161
AFIX  43
H19   2    0.590357    0.752040    0.101338    11.00000   -1.20000
AFIX   0
C20   1    0.460483    0.673215    0.122133    11.00000    0.05391    0.03171 =
         0.02067    0.00886    0.00581    0.01927
AFIX  43
H20   2    0.415025    0.681788    0.079487    11.00000   -1.20000
AFIX   0
C21   1    0.423689    0.618309    0.171288    11.00000    0.04536    0.02453 =
         0.01546    0.00222    0.00075    0.01036
AFIX  43
H21   2    0.353195    0.589528    0.161242    11.00000   -1.20000
AFIX   0
C22   1    0.551028    0.513218    0.407988    11.00000    0.01598    0.01253 =
         0.01532    0.00188    0.00213   -0.00085
C23   1    0.654901    0.491184    0.454120    11.00000    0.01683    0.02099 =
         0.02089   -0.00189    0.00027    0.00522
C24   1    0.646881    0.438501    0.509534    11.00000    0.02510    0.02564 =
         0.02695    0.00594   -0.00113    0.00803
AFIX  43
H24   2    0.574712    0.410229    0.515998    11.00000   -1.20000
AFIX   0
C25   1    0.743806    0.426923    0.555552    11.00000    0.04102    0.04392 =
         0.04011    0.00654   -0.01490    0.01889
AFIX  43
H25   2    0.738648    0.389989    0.592764    11.00000   -1.20000
AFIX   0
C26   1    0.847448    0.469046    0.547195    11.00000    0.03224    0.05362 =
         0.07128   -0.00529   -0.02732    0.01778
AFIX  43
H26   2    0.912409    0.462825    0.580064    11.00000   -1.20000
AFIX   0
C27   1    0.857233    0.520198    0.491299    11.00000    0.01578    0.04906 =
         0.09065   -0.01069   -0.01043    0.00423
AFIX  43
H27   2    0.929991    0.547926    0.485079    11.00000   -1.20000
AFIX   0
C28   1    0.761593    0.531742    0.443756    11.00000    0.01712    0.03311 =
         0.04782    0.00205    0.00061    0.00084
AFIX  43
H28   2    0.768949    0.566646    0.404946    11.00000   -1.20000
AFIX   0
C29   1    0.634138    0.455164    0.303590    11.00000    0.03203    0.02172 =
         0.01803    0.00079    0.00767    0.00957
C30   1    0.727497    0.484379    0.262238    11.00000    0.05657    0.03088 =
         0.04378    0.00940    0.03216    0.01273
AFIX  43
H30   2    0.741045    0.537562    0.259223    11.00000   -1.20000
AFIX   0
C31   1    0.801001    0.433052    0.225145    11.00000    0.08262    0.04172 =
         0.05789    0.01682    0.05498    0.02575
AFIX  43
H31   2    0.865973    0.451542    0.196743    11.00000   -1.20000
AFIX   0
C32   1    0.780607    0.356622    0.229210    11.00000    0.08975    0.04362 =
         0.03449    0.00940    0.03142    0.04028
AFIX  43
H32   2    0.830181    0.322668    0.202633    11.00000   -1.20000
AFIX   0
C33   1    0.688440    0.328219    0.271668    11.00000    0.06796    0.02407 =
         0.02823    0.00087    0.00771    0.01939
AFIX  43
H33   2    0.675532    0.274986    0.274895    11.00000   -1.20000
AFIX   0
C34   1    0.615207    0.377925    0.309393    11.00000    0.04131    0.02314 =
         0.01946    0.00173    0.00480    0.00889
AFIX  43
H34   2    0.552250    0.358990    0.339121    11.00000   -1.20000
AFIX   0
rem disordered triflate
EADP S1 S1A
EADP O1 O1A
EADP O2 O2A
EADP O3 O3A
EADP C1T C1TA
EADP F1 F1A
EADP F2 F2A
EADP F3 F3A
SADI 0.01 S1 O1 S1 O2 S1 O3 S1A O1A S1A O2A S1A O3A
SADI 0.01 S1 C1T S1A C1TA
SADI 0.01 C1T F1 C1T F2 C1T F3 C1TA F1A C1TA F2A C1TA F3A

SADI 0.02 O1 O2 O1 O3 O2 O3 O1A O2A O1A O3A O2A O3A
SADI 0.02 F1 F2 F1 F3 F2 F3 F1A F2A F1A F3A F2A F3A
SADI 0.02 S1 O1 S1 O2 S1 O3 S1A O1A S1A O2A S1A O3A
SADI 0.01 C1T F1 C1T F2 C1T F3 C1TA F1A C1TA F2A C1TA F3A
PART 1
S1    8   -0.005068    0.641413    0.342006    21.00000    0.02203
O1    5   -0.127676    0.667453    0.353359    21.00000    0.02737
O2    5    0.086406    0.688615    0.375682    21.00000    0.03245
O3    5    0.014578    0.560897    0.349206    21.00000    0.02920
C1T   1    0.022257    0.658233    0.245997    21.00000    0.02798
F1    6   -0.044237    0.614120    0.201276    21.00000    0.04368
F2    6    0.136554    0.642791    0.228300    21.00000    0.04026
F3    6    0.001769    0.731085    0.229579    21.00000    0.04304
PART 2
S1A   8   -0.022936    0.680031    0.321714   -21.00000    0.02203
O1A   5   -0.148852    0.663837    0.334756   -21.00000    0.02737
O2A   5    0.055909    0.664941    0.382682   -21.00000    0.03245
O3A   5    0.000204    0.748366    0.281970   -21.00000    0.02920
C1TA  1    0.014414    0.604166    0.258775   -21.00000    0.02798
F1A   6   -0.067789    0.611144    0.207124   -21.00000    0.04368
F2A   6    0.126843    0.609962    0.233997   -21.00000    0.04026
F3A   6    0.002503    0.536085    0.289385   -21.00000    0.04304
PART 0
rem disordered CH2Cl2
SADI 0.01 C1C CL1 C1C CL2 C1CA CL1A C1CA CL2A
SADI 0.02 CL1 CL2 CL1A CL2A
EADP C1C C1CA
rem EADP CL1 CL1A
rem EADP CL2 CL2A
SIMU 0.005 0.010 6 CL1 CL1A
SIMU 0.005 0.010 6 CL2 CL2A
SIMU 0.01 0.02 6 CL1 CL1A CL2 CL2A
PART 1
C1C   1    0.047572    0.818876    0.083041    31.00000    0.06778
AFIX  23
H1C1  2    0.047600    0.863678    0.050788    31.00000   -1.20000
H1C2  2    0.053888    0.837266    0.133339    31.00000   -1.20000
AFIX   0
CL1   9    0.171460    0.761928    0.063251    31.00000    0.04454    0.06456 =
         0.04428   -0.01109   -0.00492    0.00726
CL2   9   -0.089995    0.768213    0.072180    31.00000    0.04382    0.07087 =
         0.05795    0.02551   -0.01045    0.00071
PART 2
C1CA  1    0.069153    0.802390    0.125311   -31.00000    0.06778
AFIX  23
H1C3  2    0.057195    0.779076    0.173353   -31.00000   -1.20000
H1C4  2    0.116496    0.849560    0.131872   -31.00000   -1.20000
AFIX   0
CL1A  9   -0.069364    0.824616    0.088569   -31.00000    0.05043    0.15136 =
         0.06431    0.02028    0.00135    0.04771
CL2A  9    0.149522    0.739886    0.070674   -31.00000    0.06994    0.05383 =
         0.06160   -0.00943    0.02188    0.02608

PART 0

HKLF 4

REM  jcs074 in P2(1)2(1)2(1)
REM R1 =  0.0539 for    7827 Fo > 4sig(Fo)  and  0.0591 for all    8349 data
REM    414 parameters refined using    151 restraints

END

WGHT      0.0590      5.4513

REM Instructions for potential hydrogen bonds
HTAB C3 O2_$1
HTAB C7 Cl1A_$2
HTAB C7 Cl2A_$3
HTAB C9 O3
HTAB C1CA O3A

REM Highest difference peak  0.947,  deepest hole -0.705,  1-sigma level  0.071
Q1    1   0.2948  0.4388  0.2597  11.00000  0.05    0.95
Q2    1   0.1548  0.3829  0.2381  11.00000  0.05    0.68
Q3    1   0.3785  0.4326  0.2017  11.00000  0.05    0.68
Q4    1   0.3775  0.4799  0.2625  11.00000  0.05    0.66
Q5    1   0.2567  0.3788  0.2274  11.00000  0.05    0.56
Q6    1   0.2082  0.4559  0.2759  11.00000  0.05    0.54
Q7    1  -0.0470  0.5806  0.2098  11.00000  0.05    0.45
Q8    1   0.1949  0.3384  0.1967  11.00000  0.05    0.44
Q9    1   0.0277  0.8873  0.1119  11.00000  0.05    0.44
Q10   1   0.0077  0.5432  0.2522  11.00000  0.05    0.42
Q11   1   0.3156  0.3580  0.1724  11.00000  0.05    0.42
Q12   1   0.4206  0.3616  0.1458  11.00000  0.05    0.41
Q13   1  -0.0752  0.6412  0.2046  11.00000  0.05    0.40
Q14   1   0.0947  0.6372  0.2086  11.00000  0.05    0.38
Q15   1   0.3407  0.3229  0.1605  11.00000  0.05    0.33
Q16   1  -0.0352  0.7425  0.2478  11.00000  0.05    0.30
Q17   1   0.0343  0.7366  0.2372  11.00000  0.05    0.30
Q18   1  -0.0344  0.7402  0.0623  11.00000  0.05    0.29
Q19   1   0.2541  0.3285  0.1875  11.00000  0.05    0.28
Q20   1  -0.0332  0.7203  0.2165  11.00000  0.05    0.28
;
_shelx_res_checksum              70483
loop_
_space_group_symop_operation_xyz
'x, y, z'
'-x+1/2, -y, z+1/2'
'-x, y+1/2, -z+1/2'
'x+1/2, -y+1/2, -z'
loop_
_atom_site_label
_atom_site_type_symbol
_atom_site_fract_x
_atom_site_fract_y
_atom_site_fract_z
_atom_site_U_iso_or_equiv
_atom_site_adp_type
_atom_site_occupancy
_atom_site_site_symmetry_order
_atom_site_calc_flag
_atom_site_refinement_flags_posn
_atom_site_refinement_flags_adp
_atom_site_refinement_flags_occupancy
_atom_site_disorder_assembly
_atom_site_disorder_group
P1 P 0.41611(7) 0.56426(4) 0.44060(4) 0.01245(16) Uani 1 1 d . . . . .
C1 C 0.3531(3) 0.58545(19) 0.35470(17) 0.0165(6) Uani 1 1 d . . . . .
H1A H 0.2683 0.5678 0.3528 0.020 Uiso 1 1 calc R U . . .
H1B H 0.3540 0.6410 0.3465 0.020 Uiso 1 1 calc R U . . .
B1 B 0.4335(4) 0.5421(2) 0.29126(19) 0.0175(7) Uani 1 1 d . . . . .
N1 N 0.5468(3) 0.50507(15) 0.33876(15) 0.0167(6) Uani 1 1 d . . . . .
C2 C 0.4632(3) 0.65128(18) 0.48897(18) 0.0174(7) Uani 1 1 d . . . . .
C3 C 0.5301(4) 0.6357(2) 0.5597(2) 0.0240(7) Uani 1 1 d . . . . .
H3A H 0.4775 0.6072 0.5925 0.036 Uiso 1 1 calc R U . . .
H3B H 0.6029 0.6059 0.5498 0.036 Uiso 1 1 calc R U . . .
H3C H 0.5528 0.6840 0.5822 0.036 Uiso 1 1 calc R U . . .
C4 C 0.5473(4) 0.6959(2) 0.4387(2) 0.0256(7) Uani 1 1 d . . . . .
H4A H 0.5056 0.7063 0.3931 0.038 Uiso 1 1 calc R U . . .
H4B H 0.5699 0.7440 0.4616 0.038 Uiso 1 1 calc R U . . .
H4C H 0.6200 0.6659 0.4292 0.038 Uiso 1 1 calc R U . . .
C5 C 0.3480(4) 0.6981(2) 0.5029(2) 0.0270(8) Uani 1 1 d . . . . .
H5A H 0.3065 0.7075 0.4571 0.040 Uiso 1 1 calc R U . . .
H5B H 0.2945 0.6699 0.5353 0.040 Uiso 1 1 calc R U . . .
H5C H 0.3698 0.7467 0.5251 0.040 Uiso 1 1 calc R U . . .
C6 C 0.3221(3) 0.4950(2) 0.49130(18) 0.0185(7) Uani 1 1 d . . . . .
C7 C 0.3326(4) 0.4186(2) 0.4517(2) 0.0239(8) Uani 1 1 d . . . . .
H7A H 0.3095 0.4252 0.4011 0.036 Uiso 1 1 calc R U . . .
H7B H 0.4161 0.4005 0.4543 0.036 Uiso 1 1 calc R U . . .
H7C H 0.2791 0.3814 0.4745 0.036 Uiso 1 1 calc R U . . .
C8 C 0.3579(4) 0.4861(2) 0.57078(19) 0.0249(8) Uani 1 1 d . . . . .
H8A H 0.3506 0.5353 0.5952 0.037 Uiso 1 1 calc R U . . .
H8B H 0.3044 0.4492 0.5940 0.037 Uiso 1 1 calc R U . . .
H8C H 0.4414 0.4683 0.5739 0.037 Uiso 1 1 calc R U . . .
C9 C 0.1890(3) 0.5209(3) 0.4882(2) 0.0306(9) Uani 1 1 d . . . . .
H9A H 0.1644 0.5269 0.4377 0.046 Uiso 1 1 calc R U . . .
H9B H 0.1379 0.4827 0.5115 0.046 Uiso 1 1 calc R U . . .
H9C H 0.1804 0.5696 0.5133 0.046 Uiso 1 1 calc R U . . .
C10 C 0.3617(3) 0.47114(16) 0.25010(16) 0.0308(9) Uani 1 1 d DG . . . .
C11 C 0.4159(3) 0.4270(2) 0.1971(2) 0.0312(13) Uiso 0.585(6) 1 d DG . P A 1
H11 H 0.4954 0.4384 0.1814 0.037 Uiso 0.585(6) 1 calc R U P A 1
C12 C 0.3538(5) 0.3662(2) 0.1671(2) 0.0258(11) Uiso 0.585(6) 1 d DG . P A 1
H12 H 0.3908 0.3360 0.1308 0.031 Uiso 0.585(6) 1 calc R U P A 1
C13 C 0.2374(5) 0.3495(2) 0.1900(2) 0.0232(11) Uiso 0.585(6) 1 d DG . P A 1
H13 H 0.1950 0.3079 0.1695 0.028 Uiso 0.585(6) 1 calc R U P A 1
C14 C 0.1832(3) 0.3936(3) 0.2431(3) 0.0259(11) Uiso 0.585(6) 1 d DG . P A 1
H14 H 0.1037 0.3822 0.2588 0.031 Uiso 0.585(6) 1 calc R U P A 1
C15 C 0.2454(3) 0.4545(2) 0.2731(2) 0.0307(14) Uiso 0.585(6) 1 d DG . P A 1
H15 H 0.2083 0.4846 0.3093 0.037 Uiso 0.585(6) 1 calc R U P A 1
C11A C 0.2501(5) 0.4387(5) 0.2637(5) 0.0312(13) Uiso 0.415(6) 1 d D . P A 2
H11A H 0.1971 0.4609 0.2981 0.037 Uiso 0.415(6) 1 calc R U P A 2
C12A C 0.2165(6) 0.3735(4) 0.2268(5) 0.0258(11) Uiso 0.415(6) 1 d D . P A 2
H12A H 0.1405 0.3506 0.2362 0.031 Uiso 0.415(6) 1 calc R U P A 2
C13A C 0.2935(8) 0.3414(4) 0.1761(4) 0.0232(11) Uiso 0.415(6) 1 d D . P A 2
H13A H 0.2710 0.2958 0.1523 0.028 Uiso 0.415(6) 1 calc R U P A 2
C14A C 0.4031(7) 0.3757(4) 0.1600(4) 0.0259(11) Uiso 0.415(6) 1 d D . P A 2
H14A H 0.4545 0.3548 0.1241 0.031 Uiso 0.415(6) 1 calc R U P A 2
C15A C 0.4368(6) 0.4410(4) 0.1970(4) 0.0307(14) Uiso 0.415(6) 1 d D . P A 2
H15A H 0.5112 0.4652 0.1861 0.037 Uiso 0.415(6) 1 calc R U P A 2
C16 C 0.4873(4) 0.60401(19) 0.23529(18) 0.0209(7) Uani 1 1 d . . . . .
C17 C 0.5884(4) 0.6495(2) 0.24780(19) 0.0262(8) Uani 1 1 d . . . . .
H17 H 0.6319 0.6430 0.2915 0.031 Uiso 1 1 calc R U . . .
C18 C 0.6278(5) 0.7042(2) 0.1987(2) 0.0331(10) Uani 1 1 d . . . . .
H18 H 0.6979 0.7334 0.2085 0.040 Uiso 1 1 calc R U . . .
C19 C 0.5637(5) 0.7155(2) 0.1355(2) 0.0365(11) Uani 1 1 d . . . . .
H19 H 0.5904 0.7520 0.1013 0.044 Uiso 1 1 calc R U . . .
C20 C 0.4605(5) 0.6732(2) 0.1221(2) 0.0354(10) Uani 1 1 d . . . . .
H20 H 0.4150 0.6818 0.0795 0.043 Uiso 1 1 calc R U . . .
C21 C 0.4237(4) 0.6183(2) 0.17129(19) 0.0285(8) Uani 1 1 d . . . . .
H21 H 0.3532 0.5895 0.1612 0.034 Uiso 1 1 calc R U . . .
C22 C 0.5510(3) 0.51322(18) 0.40799(17) 0.0146(6) Uani 1 1 d . . . . .
C23 C 0.6549(3) 0.4912(2) 0.45412(19) 0.0196(7) Uani 1 1 d . . . . .
C24 C 0.6469(4) 0.4385(2) 0.5095(2) 0.0259(8) Uani 1 1 d . . . . .
H24 H 0.5747 0.4102 0.5160 0.031 Uiso 1 1 calc R U . . .
C25 C 0.7438(4) 0.4269(3) 0.5556(3) 0.0417(11) Uani 1 1 d . . . . .
H25 H 0.7386 0.3900 0.5928 0.050 Uiso 1 1 calc R U . . .
C26 C 0.8474(5) 0.4690(3) 0.5472(3) 0.0524(14) Uani 1 1 d . . . . .
H26 H 0.9124 0.4628 0.5801 0.063 Uiso 1 1 calc R U . . .
C27 C 0.8572(4) 0.5202(3) 0.4913(4) 0.0518(15) Uani 1 1 d . . . . .
H27 H 0.9300 0.5479 0.4851 0.062 Uiso 1 1 calc R U . . .
C28 C 0.7616(3) 0.5317(2) 0.4438(3) 0.0327(9) Uani 1 1 d . . . . .
H28 H 0.7689 0.5666 0.4049 0.039 Uiso 1 1 calc R U . . .
C29 C 0.6341(4) 0.4552(2) 0.3036(2) 0.0239(8) Uani 1 1 d . . . . .
C30 C 0.7275(5) 0.4844(3) 0.2622(3) 0.0437(13) Uani 1 1 d . . . . .
H30 H 0.7410 0.5376 0.2592 0.052 Uiso 1 1 calc R U . . .
C31 C 0.8010(6) 0.4331(3) 0.2251(3) 0.0607(19) Uani 1 1 d . . . . .
H31 H 0.8660 0.4515 0.1967 0.073 Uiso 1 1 calc R U . . .
C32 C 0.7806(6) 0.3566(3) 0.2292(3) 0.0560(17) Uani 1 1 d . . . . .
H32 H 0.8302 0.3227 0.2026 0.067 Uiso 1 1 calc R U . . .
C33 C 0.6884(5) 0.3282(3) 0.2717(2) 0.0401(11) Uani 1 1 d . . . . .
H33 H 0.6755 0.2750 0.2749 0.048 Uiso 1 1 calc R U . . .
C34 C 0.6152(4) 0.3779(2) 0.3094(2) 0.0280(9) Uani 1 1 d . . . . .
H34 H 0.5522 0.3590 0.3391 0.034 Uiso 1 1 calc R U . . .
S1 S -0.00507(14) 0.64141(8) 0.34201(8) 0.0220(3) Uiso 0.6148(17) 1 d D . P B 1
O1 O -0.1277(4) 0.6675(3) 0.3534(3) 0.0274(9) Uiso 0.6148(17) 1 d D . P B 1
O2 O 0.0864(5) 0.6886(3) 0.3757(3) 0.0325(10) Uiso 0.6148(17) 1 d D . P B 1
O3 O 0.0146(4) 0.5609(2) 0.3492(2) 0.0292(8) Uiso 0.6148(17) 1 d D . P B 1
C1T C 0.0223(5) 0.6582(3) 0.2460(3) 0.0280(11) Uiso 0.6148(17) 1 d D . P B 1
F1 F -0.0442(5) 0.6141(4) 0.2013(3) 0.0437(9) Uiso 0.6148(17) 1 d D . P B 1
F2 F 0.1366(4) 0.6428(3) 0.2283(3) 0.0403(9) Uiso 0.6148(17) 1 d D . P B 1
F3 F 0.0018(4) 0.7311(2) 0.2296(3) 0.0430(9) Uiso 0.6148(17) 1 d D . P B 1
S1A S -0.0229(2) 0.68003(13) 0.32171(13) 0.0220(3) Uiso 0.3852(17) 1 d D . P B
2
O1A O -0.1489(6) 0.6638(5) 0.3348(5) 0.0274(9) Uiso 0.3852(17) 1 d D . P B 2
O2A O 0.0559(7) 0.6649(5) 0.3827(4) 0.0325(10) Uiso 0.3852(17) 1 d D . P B 2
O3A O 0.0002(7) 0.7484(4) 0.2820(4) 0.0292(8) Uiso 0.3852(17) 1 d D . P B 2
C1TA C 0.0144(7) 0.6042(5) 0.2588(5) 0.0280(11) Uiso 0.3852(17) 1 d D . P B 2
F1A F -0.0678(8) 0.6111(6) 0.2071(5) 0.0437(9) Uiso 0.3852(17) 1 d D . P B 2
F2A F 0.1268(6) 0.6100(5) 0.2340(4) 0.0403(9) Uiso 0.3852(17) 1 d D . P B 2
F3A F 0.0025(7) 0.5361(4) 0.2894(4) 0.0430(9) Uiso 0.3852(17) 1 d D . P B 2
C1C C 0.0476(6) 0.8189(5) 0.0830(6) 0.068(2) Uiso 0.761(6) 1 d D . P C 1
H1C1 H 0.0476 0.8637 0.0508 0.081 Uiso 0.761(6) 1 calc R U P C 1
H1C2 H 0.0539 0.8373 0.1333 0.081 Uiso 0.761(6) 1 calc R U P C 1
Cl1 Cl 0.1715(3) 0.7619(2) 0.0633(2) 0.0511(8) Uani 0.761(6) 1 d D U P C 1
Cl2 Cl -0.08999(18) 0.76821(16) 0.07218(12) 0.0575(7) Uani 0.761(6) 1 d D U P C
1
C1CA C 0.0692(15) 0.8024(15) 0.1253(13) 0.068(2) Uiso 0.239(6) 1 d D . P C 2
H1C3 H 0.0572 0.7791 0.1734 0.081 Uiso 0.239(6) 1 calc R U P C 2
H1C4 H 0.1165 0.8496 0.1319 0.081 Uiso 0.239(6) 1 calc R U P C 2
Cl1A Cl -0.0694(8) 0.8246(9) 0.0886(5) 0.089(3) Uani 0.239(6) 1 d D U P C 2
Cl2A Cl 0.1495(12) 0.7399(7) 0.0707(8) 0.062(3) Uani 0.239(6) 1 d D U P C 2
loop_
_atom_site_aniso_label
_atom_site_aniso_U_11
_atom_site_aniso_U_22
_atom_site_aniso_U_33
_atom_site_aniso_U_23
_atom_site_aniso_U_13
_atom_site_aniso_U_12
P1 0.0133(3) 0.0135(3) 0.0106(3) 0.0003(3) -0.0001(3) 0.0002(3)
C1 0.0171(16) 0.0200(16) 0.0123(14) 0.0010(12) -0.0048(12) 0.0030(12)
B1 0.027(2) 0.0143(16) 0.0115(15) 0.0002(12) -0.0010(14) 0.0033(14)
N1 0.0233(14) 0.0125(12) 0.0144(12) 0.0015(10) 0.0042(11) 0.0007(11)
C2 0.0250(17) 0.0132(14) 0.0141(14) -0.0029(12) -0.0002(13) 0.0005(13)
C3 0.0328(19) 0.0224(16) 0.0168(15) -0.0035(14) -0.0083(15) -0.0012(14)
C4 0.0326(19) 0.0206(16) 0.0235(17) 0.0017(14) 0.0025(16) -0.0091(14)
C5 0.035(2) 0.0236(18) 0.0219(18) -0.0047(14) 0.0027(16) 0.0090(16)
C6 0.0166(15) 0.0217(16) 0.0171(15) 0.0019(13) 0.0036(13) -0.0021(13)
C7 0.0274(18) 0.0188(16) 0.0255(18) 0.0027(14) -0.0021(15) -0.0070(14)
C8 0.0286(19) 0.0273(18) 0.0189(17) 0.0050(14) 0.0044(15) -0.0014(15)
C9 0.0141(17) 0.038(2) 0.040(2) 0.0101(18) 0.0045(16) -0.0003(16)
C10 0.059(3) 0.0162(17) 0.0168(17) -0.0014(13) -0.0146(18) 0.0012(17)
C16 0.035(2) 0.0148(15) 0.0128(15) -0.0008(12) 0.0035(14) 0.0073(14)
C17 0.042(2) 0.0198(16) 0.0164(16) -0.0031(13) 0.0043(16) 0.0014(16)
C18 0.053(3) 0.0173(17) 0.028(2) -0.0040(15) 0.0155(19) -0.0017(17)
C19 0.067(3) 0.0181(17) 0.0240(18) 0.0073(15) 0.017(2) 0.0116(19)
C20 0.054(3) 0.032(2) 0.0207(18) 0.0089(16) 0.0058(18) 0.019(2)
C21 0.045(2) 0.0245(18) 0.0155(16) 0.0022(13) 0.0007(17) 0.0104(17)
C22 0.0160(15) 0.0125(14) 0.0153(14) 0.0019(11) 0.0021(12) -0.0008(11)
C23 0.0168(15) 0.0210(16) 0.0209(17) -0.0019(13) 0.0003(13) 0.0052(13)
C24 0.0251(18) 0.0256(18) 0.0269(18) 0.0059(15) -0.0011(15) 0.0080(16)
C25 0.041(2) 0.044(3) 0.040(2) 0.007(2) -0.015(2) 0.019(2)
C26 0.032(2) 0.054(3) 0.071(4) -0.005(3) -0.027(3) 0.018(2)
C27 0.016(2) 0.049(3) 0.091(4) -0.011(3) -0.010(2) 0.004(2)
C28 0.0171(17) 0.033(2) 0.048(2) 0.002(2) 0.0006(18) 0.0008(15)
C29 0.0320(19) 0.0217(17) 0.0180(16) 0.0008(13) 0.0077(15) 0.0096(15)
C30 0.057(3) 0.031(2) 0.044(3) 0.009(2) 0.032(2) 0.013(2)
C31 0.083(4) 0.042(3) 0.058(3) 0.017(3) 0.055(3) 0.026(3)
C32 0.090(4) 0.044(3) 0.034(2) 0.009(2) 0.031(3) 0.040(3)
C33 0.068(3) 0.024(2) 0.028(2) 0.0009(17) 0.008(2) 0.019(2)
C34 0.041(2) 0.0231(18) 0.0195(17) 0.0017(14) 0.0048(16) 0.0089(16)
Cl1 0.0445(12) 0.065(2) 0.0443(13) -0.0111(14) -0.0049(11) 0.0073(12)
Cl2 0.0438(10) 0.0709(16) 0.0580(12) 0.0255(11) -0.0104(8) 0.0007(9)
Cl1A 0.050(4) 0.151(9) 0.064(4) 0.020(5) 0.001(3) 0.048(5)
Cl2A 0.070(6) 0.054(6) 0.062(5) -0.009(4) 0.022(4) 0.026(5)
loop_
_atom_type_symbol
_atom_type_description
_atom_type_scat_dispersion_real
_atom_type_scat_dispersion_imag
_atom_type_scat_source
C C 0.0033 0.0016 'International Tables Vol C Tables 4.2.6.8 and 6.1.1.4'
H H 0.0000 0.0000 'International Tables Vol C Tables 4.2.6.8 and 6.1.1.4'
B B 0.0013 0.0007 'International Tables Vol C Tables 4.2.6.8 and 6.1.1.4'
N N 0.0061 0.0033 'International Tables Vol C Tables 4.2.6.8 and 6.1.1.4'
O O 0.0106 0.0060 'International Tables Vol C Tables 4.2.6.8 and 6.1.1.4'
F F 0.0171 0.0103 'International Tables Vol C Tables 4.2.6.8 and 6.1.1.4'
P P 0.1023 0.0942 'International Tables Vol C Tables 4.2.6.8 and 6.1.1.4'
S S 0.1246 0.1234 'International Tables Vol C Tables 4.2.6.8 and 6.1.1.4'
Cl Cl 0.1484 0.1585 'International Tables Vol C Tables 4.2.6.8 and 6.1.1.4'
loop_
_geom_angle_atom_site_label_1
_geom_angle_atom_site_label_2
_geom_angle_atom_site_label_3
_geom_angle
C1 P1 C22 97.29(15)
C1 P1 C2 111.79(15)
C22 P1 C2 109.47(16)
C1 P1 C6 111.71(16)
C22 P1 C6 107.49(15)
C2 P1 C6 117.13(16)
B1 C1 P1 109.1(2)
B1 C1 H1A 109.9
P1 C1 H1A 109.9
B1 C1 H1B 109.9
P1 C1 H1B 109.9
H1A C1 H1B 108.3
C16 B1 C1 110.0(3)
C16 B1 C10 112.8(3)
C1 B1 C10 114.3(3)
C16 B1 N1 108.9(3)
C1 B1 N1 102.1(2)
C10 B1 N1 108.0(3)
C22 N1 C29 119.1(3)
C22 N1 B1 120.6(3)
C29 N1 B1 119.9(3)
C3 C2 C4 108.5(3)
C3 C2 C5 110.7(3)
C4 C2 C5 109.4(3)
C3 C2 P1 113.8(2)
C4 C2 P1 107.5(2)
C5 C2 P1 106.9(3)
C2 C3 H3A 109.5
C2 C3 H3B 109.5
H3A C3 H3B 109.5
C2 C3 H3C 109.5
H3A C3 H3C 109.5
H3B C3 H3C 109.5
C2 C4 H4A 109.5
C2 C4 H4B 109.5
H4A C4 H4B 109.5
C2 C4 H4C 109.5
H4A C4 H4C 109.5
H4B C4 H4C 109.5
C2 C5 H5A 109.5
C2 C5 H5B 109.5
H5A C5 H5B 109.5
C2 C5 H5C 109.5
H5A C5 H5C 109.5
H5B C5 H5C 109.5
C8 C6 C7 110.5(3)
C8 C6 C9 108.3(3)
C7 C6 C9 108.3(3)
C8 C6 P1 114.0(2)
C7 C6 P1 106.8(2)
C9 C6 P1 108.8(2)
C6 C7 H7A 109.5
C6 C7 H7B 109.5
H7A C7 H7B 109.5
C6 C7 H7C 109.5
H7A C7 H7C 109.5
H7B C7 H7C 109.5
C6 C8 H8A 109.5
C6 C8 H8B 109.5
H8A C8 H8B 109.5
C6 C8 H8C 109.5
H8A C8 H8C 109.5
H8B C8 H8C 109.5
C6 C9 H9A 109.5
C6 C9 H9B 109.5
H9A C9 H9B 109.5
C6 C9 H9C 109.5
H9A C9 H9C 109.5
H9B C9 H9C 109.5
C11 C10 C15 120.0
C11A C10 C15A 120.4(3)
C11A C10 B1 130.7(3)
C11 C10 B1 122.5(2)
C15 C10 B1 117.5(2)
C15A C10 B1 108.8(3)
C12 C11 C10 120.0
C12 C11 H11 120.0
C10 C11 H11 120.0
C11 C12 C13 120.0
C11 C12 H12 120.0
C13 C12 H12 120.0
C12 C13 C14 120.0
C12 C13 H13 120.0
C14 C13 H13 120.0
C15 C14 C13 120.0
C15 C14 H14 120.0
C13 C14 H14 120.0
C14 C15 C10 120.0
C14 C15 H15 120.0
C10 C15 H15 120.0
C10 C11A C12A 119.3(3)
C10 C11A H11A 120.3
C12A C11A H11A 120.3
C11A C12A C13A 120.4(3)
C11A C12A H12A 119.8
C13A C12A H12A 119.8
C12A C13A C14A 120.4(3)
C12A C13A H13A 119.8
C14A C13A H13A 119.8
C13A C14A C15A 119.2(3)
C13A C14A H14A 120.4
C15A C14A H14A 120.4
C14A C15A C10 120.2(3)
C14A C15A H15A 119.9
C10 C15A H15A 119.9
C17 C16 C21 116.2(3)
C17 C16 B1 125.1(3)
C21 C16 B1 118.5(4)
C18 C17 C16 122.6(4)
C18 C17 H17 118.7
C16 C17 H17 118.7
C19 C18 C17 119.4(4)
C19 C18 H18 120.3
C17 C18 H18 120.3
C18 C19 C20 119.8(4)
C18 C19 H19 120.1
C20 C19 H19 120.1
C19 C20 C21 119.9(4)
C19 C20 H20 120.1
C21 C20 H20 120.1
C20 C21 C16 122.1(4)
C20 C21 H21 118.9
C16 C21 H21 118.9
N1 C22 C23 124.8(3)
N1 C22 P1 110.5(2)
C23 C22 P1 124.5(2)
C24 C23 C28 119.9(4)
C24 C23 C22 123.5(3)
C28 C23 C22 116.4(3)
C23 C24 C25 120.3(4)
C23 C24 H24 119.9
C25 C24 H24 119.9
C26 C25 C24 119.9(5)
C26 C25 H25 120.1
C24 C25 H25 120.1
C25 C26 C27 120.2(4)
C25 C26 H26 119.9
C27 C26 H26 119.9
C26 C27 C28 120.8(5)
C26 C27 H27 119.6
C28 C27 H27 119.6
C27 C28 C23 118.9(4)
C27 C28 H28 120.6
C23 C28 H28 120.6
C34 C29 C30 121.5(4)
C34 C29 N1 117.2(3)
C30 C29 N1 121.2(3)
C29 C30 C31 117.9(4)
C29 C30 H30 121.1
C31 C30 H30 121.1
C32 C31 C30 120.9(5)
C32 C31 H31 119.6
C30 C31 H31 119.6
C31 C32 C33 120.6(4)
C31 C32 H32 119.7
C33 C32 H32 119.7
C32 C33 C34 119.5(4)
C32 C33 H33 120.2
C34 C33 H33 120.2
C29 C34 C33 119.6(4)
C29 C34 H34 120.2
C33 C34 H34 120.2
O3 S1 O1 116.1(3)
O3 S1 O2 114.7(3)
O1 S1 O2 114.3(3)
O3 S1 C1T 103.0(3)
O1 S1 C1T 104.2(3)
O2 S1 C1T 102.1(3)
F2 C1T F3 107.5(5)
F2 C1T F1 104.4(5)
F3 C1T F1 108.5(5)
F2 C1T S1 111.3(4)
F3 C1T S1 110.4(4)
F1 C1T S1 114.4(5)
O3A S1A O1A 115.1(5)
O3A S1A O2A 116.5(5)
O1A S1A O2A 114.5(5)
O3A S1A C1TA 104.2(4)
O1A S1A C1TA 100.5(4)
O2A S1A C1TA 103.2(4)
F1A C1TA F2A 112.7(8)
F1A C1TA F3A 108.8(8)
F2A C1TA F3A 108.0(7)
F1A C1TA S1A 103.8(7)
F2A C1TA S1A 112.2(6)
F3A C1TA S1A 111.3(6)
Cl1 C1C Cl2 111.4(5)
Cl1 C1C H1C1 109.4
Cl2 C1C H1C1 109.4
Cl1 C1C H1C2 109.4
Cl2 C1C H1C2 109.4
H1C1 C1C H1C2 108.0
Cl1A C1CA Cl2A 111.7(12)
Cl1A C1CA H1C3 109.3
Cl2A C1CA H1C3 109.3
Cl1A C1CA H1C4 109.3
Cl2A C1CA H1C4 109.3
H1C3 C1CA H1C4 107.9
loop_
_geom_bond_atom_site_label_1
_geom_bond_atom_site_label_2
_geom_bond_distance
P1 C1 1.780(3)
P1 C22 1.847(3)
P1 C2 1.851(3)
P1 C6 1.860(3)
C1 B1 1.662(5)
C1 H1A 0.9900
C1 H1B 0.9900
B1 C16 1.619(5)
B1 C10 1.667(4)
B1 N1 1.667(5)
N1 C22 1.293(4)
N1 C29 1.461(4)
C2 C3 1.533(5)
C2 C4 1.535(5)
C2 C5 1.542(5)
C3 H3A 0.9800
C3 H3B 0.9800
C3 H3C 0.9800
C4 H4A 0.9800
C4 H4B 0.9800
C4 H4C 0.9800
C5 H5A 0.9800
C5 H5B 0.9800
C5 H5C 0.9800
C6 C8 1.535(5)
C6 C7 1.536(5)
C6 C9 1.545(5)
C7 H7A 0.9800
C7 H7B 0.9800
C7 H7C 0.9800
C8 H8A 0.9800
C8 H8B 0.9800
C8 H8C 0.9800
C9 H9A 0.9800
C9 H9B 0.9800
C9 H9C 0.9800
C10 C11A 1.386(2)
C10 C11 1.3900
C10 C15 1.3900
C10 C15A 1.394(2)
C11 C12 1.3900
C11 H11 0.9500
C12 C13 1.3900
C12 H12 0.9500
C13 C14 1.3900
C13 H13 0.9500
C14 C15 1.3900
C14 H14 0.9500
C15 H15 0.9500
C11A C12A 1.389(2)
C11A H11A 0.9500
C12A C13A 1.389(2)
C12A H12A 0.9500
C13A C14A 1.390(2)
C13A H13A 0.9500
C14A C15A 1.391(2)
C14A H14A 0.9500
C15A H15A 0.9500
C16 C17 1.397(6)
C16 C21 1.404(5)
C17 C18 1.395(5)
C17 H17 0.9500
C18 C19 1.386(7)
C18 H18 0.9500
C19 C20 1.387(7)
C19 H19 0.9500
C20 C21 1.390(6)
C20 H20 0.9500
C21 H21 0.9500
C22 C23 1.486(5)
C23 C24 1.387(5)
C23 C28 1.395(5)
C24 C25 1.387(6)
C24 H24 0.9500
C25 C26 1.376(8)
C25 H25 0.9500
C26 C27 1.378(9)
C26 H26 0.9500
C27 C28 1.394(7)
C27 H27 0.9500
C28 H28 0.9500
C29 C34 1.380(6)
C29 C30 1.387(6)
C30 C31 1.398(6)
C30 H30 0.9500
C31 C32 1.367(8)
C31 H31 0.9500
C32 C33 1.384(8)
C32 H32 0.9500
C33 C34 1.384(6)
C33 H33 0.9500
C34 H34 0.9500
S1 O3 1.440(4)
S1 O1 1.450(5)
S1 O2 1.452(5)
S1 C1T 1.830(6)
C1T F2 1.337(6)
C1T F3 1.338(6)
C1T F1 1.355(7)
S1A O3A 1.434(6)
S1A O1A 1.445(6)
S1A O2A 1.454(6)
S1A C1TA 1.822(9)
C1TA F1A 1.328(8)
C1TA F2A 1.333(8)
C1TA F3A 1.333(8)
C1C Cl1 1.740(8)
C1C Cl2 1.778(8)
C1C H1C1 0.9900
C1C H1C2 0.9900
C1CA Cl1A 1.725(12)
C1CA Cl2A 1.741(12)
C1CA H1C3 0.9900
C1CA H1C4 0.9900
loop_
_geom_hbond_atom_site_label_D
_geom_hbond_atom_site_label_H
_geom_hbond_atom_site_label_A
_geom_hbond_distance_DH
_geom_hbond_distance_HA
_geom_hbond_distance_DA
_geom_hbond_angle_DHA
_geom_hbond_site_symmetry_A
C3 H3C O2 0.98 2.40 3.376(6) 171.0 4_566
C7 H7C Cl1A 0.98 2.79 3.438(8) 124.4 3_545
C7 H7C Cl2A 0.98 2.89 3.563(14) 126.4 2_565
C9 H9A O3 0.98 2.41 3.298(6) 150.3 .
C1CA H1C3 O3A 0.99 2.18 3.15(3) 166.8 .
loop_
_geom_torsion_atom_site_label_1
_geom_torsion_atom_site_label_2
_geom_torsion_atom_site_label_3
_geom_torsion_atom_site_label_4
_geom_torsion
C22 P1 C1 B1 6.5(3)
C2 P1 C1 B1 120.9(2)
C6 P1 C1 B1 -105.6(2)
P1 C1 B1 C16 -121.1(3)
P1 C1 B1 C10 110.8(3)
P1 C1 B1 N1 -5.5(3)
C16 B1 N1 C22 118.1(3)
C1 B1 N1 C22 1.8(4)
C10 B1 N1 C22 -119.1(3)
C16 B1 N1 C29 -69.5(4)
C1 B1 N1 C29 174.1(3)
C10 B1 N1 C29 53.3(4)
C1 P1 C2 C3 -173.9(3)
C22 P1 C2 C3 -67.3(3)
C6 P1 C2 C3 55.4(3)
C1 P1 C2 C4 -53.7(3)
C22 P1 C2 C4 52.9(3)
C6 P1 C2 C4 175.6(2)
C1 P1 C2 C5 63.6(3)
C22 P1 C2 C5 170.2(2)
C6 P1 C2 C5 -67.1(3)
C1 P1 C6 C8 -168.8(2)
C22 P1 C6 C8 85.6(3)
C2 P1 C6 C8 -38.0(3)
C1 P1 C6 C7 68.8(3)
C22 P1 C6 C7 -36.8(3)
C2 P1 C6 C7 -160.4(2)
C1 P1 C6 C9 -47.9(3)
C22 P1 C6 C9 -153.5(3)
C2 P1 C6 C9 82.9(3)
C16 B1 C10 C11A -132.3(7)
C1 B1 C10 C11A -5.7(8)
N1 B1 C10 C11A 107.2(8)
C16 B1 C10 C11 55.2(4)
C1 B1 C10 C11 -178.1(3)
N1 B1 C10 C11 -65.2(4)
C16 B1 C10 C15 -127.9(3)
C1 B1 C10 C15 -1.2(4)
N1 B1 C10 C15 111.7(3)
C16 B1 C10 C15A 51.6(6)
C1 B1 C10 C15A 178.3(6)
N1 B1 C10 C15A -68.8(6)
C15 C10 C11 C12 0.0
B1 C10 C11 C12 176.8(3)
C10 C11 C12 C13 0.0
C11 C12 C13 C14 0.0
C12 C13 C14 C15 0.0
C13 C14 C15 C10 0.0
C11 C10 C15 C14 0.0
B1 C10 C15 C14 -177.0(3)
C15A C10 C11A C12A 3.5(14)
B1 C10 C11A C12A -172.2(6)
C10 C11A C12A C13A -0.6(15)
C11A C12A C13A C14A -2.3(14)
C12A C13A C14A C15A 2.2(14)
C13A C14A C15A C10 0.6(14)
C11A C10 C15A C14A -3.5(13)
B1 C10 C15A C14A 173.1(8)
C1 B1 C16 C17 78.9(4)
C10 B1 C16 C17 -152.1(3)
N1 B1 C16 C17 -32.2(4)
C1 B1 C16 C21 -95.8(4)
C10 B1 C16 C21 33.2(4)
N1 B1 C16 C21 153.1(3)
C21 C16 C17 C18 -2.5(5)
B1 C16 C17 C18 -177.3(3)
C16 C17 C18 C19 1.4(6)
C17 C18 C19 C20 0.9(6)
C18 C19 C20 C21 -1.8(6)
C19 C20 C21 C16 0.5(6)
C17 C16 C21 C20 1.6(5)
B1 C16 C21 C20 176.7(3)
C29 N1 C22 C23 15.7(5)
B1 N1 C22 C23 -171.9(3)
C29 N1 C22 P1 -169.7(2)
B1 N1 C22 P1 2.8(4)
C1 P1 C22 N1 -5.7(3)
C2 P1 C22 N1 -121.9(2)
C6 P1 C22 N1 109.9(3)
C1 P1 C22 C23 169.0(3)
C2 P1 C22 C23 52.8(3)
C6 P1 C22 C23 -75.4(3)
N1 C22 C23 C24 -120.2(4)
P1 C22 C23 C24 65.9(4)
N1 C22 C23 C28 65.7(5)
P1 C22 C23 C28 -108.3(4)
C28 C23 C24 C25 1.2(6)
C22 C23 C24 C25 -172.8(4)
C23 C24 C25 C26 1.4(7)
C24 C25 C26 C27 -2.9(8)
C25 C26 C27 C28 1.9(9)
C26 C27 C28 C23 0.7(8)
C24 C23 C28 C27 -2.2(6)
C22 C23 C28 C27 172.1(4)
C22 N1 C29 C34 76.2(5)
B1 N1 C29 C34 -96.3(4)
C22 N1 C29 C30 -107.9(5)
B1 N1 C29 C30 79.6(5)
C34 C29 C30 C31 1.3(8)
N1 C29 C30 C31 -174.5(5)
C29 C30 C31 C32 0.5(10)
C30 C31 C32 C33 -1.6(11)
C31 C32 C33 C34 1.0(9)
C30 C29 C34 C33 -1.9(7)
N1 C29 C34 C33 174.0(4)
C32 C33 C34 C29 0.7(7)
O3 S1 C1T F2 -63.7(5)
O1 S1 C1T F2 174.7(4)
O2 S1 C1T F2 55.5(5)
O3 S1 C1T F3 177.1(4)
O1 S1 C1T F3 55.5(5)
O2 S1 C1T F3 -63.7(5)
O3 S1 C1T F1 54.3(5)
O1 S1 C1T F1 -67.3(5)
O2 S1 C1T F1 173.5(5)
O3A S1A C1TA F1A -65.9(7)
O1A S1A C1TA F1A 53.5(7)
O2A S1A C1TA F1A 172.0(7)
O3A S1A C1TA F2A 56.0(7)
O1A S1A C1TA F2A 175.5(6)
O2A S1A C1TA F2A -66.0(7)
O3A S1A C1TA F3A 177.2(6)
O1A S1A C1TA F3A -63.4(7)
O2A S1A C1TA F3A 55.1(7)
