#------------------------------------------------------------------------------
#$Date: 2019-11-17 08:28:20 +0200 (Sun, 17 Nov 2019) $
#$Revision: 228857 $
#$URL: file:///home/coder/svn-repositories/cod/cif/1/54/89/1548943.cif $
#------------------------------------------------------------------------------
#
# This file is available in the Crystallography Open Database (COD),
# http://www.crystallography.net/
#
# All data on this site have been placed in the public domain by the
# contributors.
#
data_1548943
loop_
_publ_author_name
'Giri, Sovan Sundar'
'Liu, Rai-Shung'
_publ_section_title
;
 Gold-catalyzed [4+3]- and [4+2]-annulations of 3-en-1-ynamides with
 isoxazoles <i>via</i> novel 6\p-electrocyclizations of 3-azahepta trienyl
 cations.
;
_journal_issue                   11
_journal_name_full               'Chemical science'
_journal_page_first              2991
_journal_page_last               2995
_journal_paper_doi               10.1039/c8sc00232k
_journal_volume                  9
_journal_year                    2018
_chemical_formula_moiety         'C18 H22 N2 O3 S'
_chemical_formula_sum            'C18 H22 N2 O3 S'
_chemical_formula_weight         346.44
_space_group_IT_number           14
_space_group_name_Hall           '-P 2ybc'
_space_group_name_H-M_alt        'P 1 21/c 1'
_symmetry_cell_setting           monoclinic
_symmetry_space_group_name_Hall  '-P 2ybc'
_symmetry_space_group_name_H-M   'P 1 21/c 1'
_atom_sites_solution_hydrogens   geom
_atom_sites_solution_primary     direct
_atom_sites_solution_secondary   difmap
_audit_creation_method           SHELXL-97
_audit_update_record
;
2017-12-06 deposited with the CCDC.
2018-02-19 downloaded from the CCDC.
;
_cell_angle_alpha                90.00
_cell_angle_beta                 95.370(2)
_cell_angle_gamma                90.00
_cell_formula_units_Z            4
_cell_length_a                   17.4170(10)
_cell_length_b                   7.3299(4)
_cell_length_c                   13.5997(7)
_cell_measurement_reflns_used    8815
_cell_measurement_temperature    200(2)
_cell_measurement_theta_max      25.04
_cell_measurement_theta_min      3.018
_cell_volume                     1728.58(16)
_computing_molecular_graphics    'Ortep-3 for Windows (Farrugia, 1997)'
_computing_publication_material  'WinGX publication routines (Farrugia, 1999)'
_computing_structure_refinement  'SHELXL-97 (Sheldrick, 1997)'
_computing_structure_solution    'SHELXS-86 (Sheldrick, 1986)'
_diffrn_ambient_temperature      200(2)
_diffrn_measured_fraction_theta_full 0.991
_diffrn_measured_fraction_theta_max 0.991
_diffrn_measurement_device_type  'D8 Venture'
_diffrn_radiation_monochromator  graphite
_diffrn_radiation_source         'fine-focus sealed tube'
_diffrn_radiation_type           MoK\a
_diffrn_radiation_wavelength     0.71073
_diffrn_reflns_av_R_equivalents  0.0551
_diffrn_reflns_av_sigmaI/netI    0.0301
_diffrn_reflns_limit_h_max       20
_diffrn_reflns_limit_h_min       -20
_diffrn_reflns_limit_k_max       8
_diffrn_reflns_limit_k_min       -8
_diffrn_reflns_limit_l_max       15
_diffrn_reflns_limit_l_min       -16
_diffrn_reflns_number            24394
_diffrn_reflns_theta_full        25.06
_diffrn_reflns_theta_max         25.06
_diffrn_reflns_theta_min         3.01
_exptl_absorpt_coefficient_mu    0.206
_exptl_absorpt_correction_T_max  0.9878
_exptl_absorpt_correction_T_min  0.9185
_exptl_absorpt_correction_type   multi-scan
_exptl_absorpt_process_details   SADABS
_exptl_crystal_colour            colorless
_exptl_crystal_density_diffrn    1.331
_exptl_crystal_density_method    'not measured'
_exptl_crystal_description       prism
_exptl_crystal_F_000             736
_exptl_crystal_size_max          0.42
_exptl_crystal_size_mid          0.29
_exptl_crystal_size_min          0.06
_refine_diff_density_max         0.700
_refine_diff_density_min         -0.373
_refine_diff_density_rms         0.082
_refine_ls_extinction_coef       0.016(2)
_refine_ls_extinction_expression Fc^*^=kFc[1+0.001xFc^2^\l^3^/sin(2\q)]^-1/4^
_refine_ls_extinction_method     SHELXL
_refine_ls_goodness_of_fit_ref   1.061
_refine_ls_hydrogen_treatment    constr
_refine_ls_matrix_type           full
_refine_ls_number_parameters     223
_refine_ls_number_reflns         3043
_refine_ls_number_restraints     0
_refine_ls_restrained_S_all      1.061
_refine_ls_R_factor_all          0.0866
_refine_ls_R_factor_gt           0.0752
_refine_ls_shift/su_max          0.249
_refine_ls_shift/su_mean         0.004
_refine_ls_structure_factor_coef Fsqd
_refine_ls_weighting_details
'calc w=1/[\s^2^(Fo^2^)+(0.0269P)^2^+10.2763P] where P=(Fo^2^+2Fc^2^)/3'
_refine_ls_weighting_scheme      calc
_refine_ls_wR_factor_gt          0.1895
_refine_ls_wR_factor_ref         0.1966
_reflns_number_gt                2569
_reflns_number_total             3043
_reflns_threshold_expression     >2sigma(I)
_cod_data_source_file            c8sc00232k2.cif
_cod_data_source_block           d19102
_cod_depositor_comments
'Adding full bibliography for 1548943--1548948.cif.'
_cod_original_sg_symbol_H-M      'P 21/c'
_cod_database_code               1548943
loop_
_symmetry_equiv_pos_as_xyz
'x, y, z'
'-x, y+1/2, -z+1/2'
'-x, -y, -z'
'x, -y-1/2, z-1/2'
loop_
_atom_site_label
_atom_site_type_symbol
_atom_site_fract_x
_atom_site_fract_y
_atom_site_fract_z
_atom_site_U_iso_or_equiv
_atom_site_adp_type
_atom_site_occupancy
_atom_site_symmetry_multiplicity
_atom_site_calc_flag
_atom_site_refinement_flags
C1 C 0.6108(2) 0.3097(6) 0.3229(3) 0.0294(10) Uani 1 1 d .
C2 C 0.5433(3) 0.3936(7) 0.2821(3) 0.0348(11) Uani 1 1 d .
H2 H 0.5417 0.4525 0.2198 0.042 Uiso 1 1 calc R
C3 C 0.4788(3) 0.3895(7) 0.3339(4) 0.0364(11) Uani 1 1 d .
H3 H 0.4326 0.4457 0.3064 0.044 Uiso 1 1 calc R
C4 C 0.4802(3) 0.3049(7) 0.4256(4) 0.0372(12) Uani 1 1 d .
C5 C 0.4101(3) 0.3019(9) 0.4826(4) 0.0549(16) Uani 1 1 d .
H5A H 0.3711 0.3858 0.4519 0.082 Uiso 1 1 calc R
H5B H 0.4247 0.3399 0.5509 0.082 Uiso 1 1 calc R
H5C H 0.3889 0.1780 0.4822 0.082 Uiso 1 1 calc R
C6 C 0.5479(3) 0.2236(8) 0.4632(4) 0.0429(13) Uani 1 1 d .
H6 H 0.5495 0.1638 0.5253 0.051 Uiso 1 1 calc R
C7 C 0.6135(3) 0.2261(7) 0.4136(4) 0.0376(12) Uani 1 1 d .
H7 H 0.6598 0.1708 0.4417 0.045 Uiso 1 1 calc R
C8 C 0.6962(3) 0.6784(7) 0.2599(4) 0.0425(12) Uani 1 1 d .
H8A H 0.7308 0.7838 0.2680 0.064 Uiso 1 1 calc R
H8B H 0.6527 0.6961 0.2998 0.064 Uiso 1 1 calc R
H8C H 0.6768 0.6662 0.1902 0.064 Uiso 1 1 calc R
C9 C 0.7852(2) 0.5245(6) 0.3859(3) 0.0276(10) Uani 1 1 d .
C10 C 0.8533(2) 0.4112(6) 0.3984(3) 0.0305(10) Uani 1 1 d .
H10 H 0.8776 0.3738 0.3421 0.037 Uiso 1 1 calc R
C11 C 0.8828(3) 0.3582(6) 0.4886(4) 0.0321(11) Uani 1 1 d .
C12 C 0.9595(3) 0.2631(7) 0.5064(4) 0.0449(13) Uani 1 1 d .
H12A H 0.9790 0.2341 0.4428 0.067 Uiso 1 1 calc R
H12B H 0.9532 0.1502 0.5434 0.067 Uiso 1 1 calc R
H12C H 0.9963 0.3432 0.5444 0.067 Uiso 1 1 calc R
C13 C 0.8392(3) 0.4002(7) 0.5758(3) 0.0352(11) Uani 1 1 d .
H13A H 0.8613 0.3318 0.6345 0.042 Uiso 1 1 calc R
H13B H 0.7844 0.3652 0.5619 0.042 Uiso 1 1 calc R
C14 C 0.8460(3) 0.6031(7) 0.5943(3) 0.0322(11) Uani 1 1 d .
C15 C 0.8911(3) 0.6728(8) 0.6852(4) 0.0403(12) Uani 1 1 d .
C16 C 0.9147(4) 0.5452(11) 0.7667(5) 0.078(2) Uani 1 1 d .
H16A H 0.8714 0.4647 0.7779 0.117 Uiso 1 1 calc R
H16B H 0.9299 0.6145 0.8270 0.117 Uiso 1 1 calc R
H16C H 0.9584 0.4717 0.7491 0.117 Uiso 1 1 calc R
C17 C 0.8107(2) 0.7179(6) 0.5260(3) 0.0304(10) Uani 1 1 d .
C18 C 0.8081(3) 0.9214(7) 0.5309(4) 0.0494(14) Uani 1 1 d .
H18A H 0.8237 0.9727 0.4693 0.074 Uiso 1 1 calc R
H18B H 0.8435 0.9640 0.5865 0.074 Uiso 1 1 calc R
H18C H 0.7556 0.9610 0.5403 0.074 Uiso 1 1 calc R
N1 N 0.7386(2) 0.5116(6) 0.2927(3) 0.0323(9) Uani 1 1 d .
N2 N 0.7660(2) 0.6540(5) 0.4420(3) 0.0298(9) Uani 1 1 d .
O1 O 0.6710(2) 0.3350(6) 0.1561(2) 0.0497(11) Uani 1 1 d .
O2 O 0.74395(19) 0.1723(5) 0.2941(3) 0.0422(9) Uani 1 1 d .
O3 O 0.9097(3) 0.8320(7) 0.6944(4) 0.0864(17) Uani 1 1 d .
S1 S 0.69476(6) 0.31771(18) 0.25948(8) 0.0335(4) Uani 1 1 d .
loop_
_atom_site_aniso_label
_atom_site_aniso_U_11
_atom_site_aniso_U_22
_atom_site_aniso_U_33
_atom_site_aniso_U_23
_atom_site_aniso_U_13
_atom_site_aniso_U_12
C1 0.027(2) 0.035(3) 0.026(2) -0.003(2) 0.0003(17) -0.005(2)
C2 0.034(2) 0.038(3) 0.032(2) 0.002(2) -0.0016(19) -0.005(2)
C3 0.028(2) 0.039(3) 0.043(3) -0.005(2) 0.004(2) -0.006(2)
C4 0.035(3) 0.043(3) 0.035(3) -0.013(2) 0.007(2) -0.016(2)
C5 0.042(3) 0.073(4) 0.053(3) -0.020(3) 0.022(3) -0.023(3)
C6 0.043(3) 0.059(4) 0.026(2) 0.005(2) -0.002(2) -0.015(3)
C7 0.034(2) 0.044(3) 0.033(3) 0.006(2) -0.005(2) -0.005(2)
C8 0.040(3) 0.047(3) 0.039(3) 0.013(2) -0.005(2) 0.004(2)
C9 0.024(2) 0.030(2) 0.029(2) 0.0055(19) 0.0040(17) -0.0051(18)
C10 0.025(2) 0.028(2) 0.039(3) -0.005(2) 0.0018(19) -0.0004(19)
C11 0.029(2) 0.026(2) 0.041(3) -0.002(2) -0.0003(19) -0.0016(19)
C12 0.037(3) 0.042(3) 0.052(3) 0.001(3) -0.014(2) 0.006(2)
C13 0.038(3) 0.034(3) 0.033(2) 0.005(2) 0.001(2) -0.002(2)
C14 0.029(2) 0.037(3) 0.032(2) -0.004(2) 0.0056(19) -0.003(2)
C15 0.035(3) 0.050(3) 0.036(3) -0.011(2) 0.005(2) -0.005(2)
C16 0.084(5) 0.097(6) 0.046(4) 0.016(4) -0.031(3) -0.044(4)
C17 0.027(2) 0.034(3) 0.031(2) -0.004(2) 0.0055(18) -0.0019(19)
C18 0.061(4) 0.031(3) 0.056(3) -0.004(3) 0.005(3) -0.001(3)
N1 0.0269(19) 0.041(2) 0.0282(19) 0.0065(18) -0.0007(15) 0.0000(17)
N2 0.0269(19) 0.032(2) 0.031(2) 0.0013(17) 0.0046(15) -0.0003(16)
O1 0.0376(19) 0.085(3) 0.0264(17) -0.0104(19) 0.0038(14) -0.007(2)
O2 0.0353(18) 0.038(2) 0.052(2) -0.0104(17) 0.0015(16) 0.0037(15)
O3 0.117(4) 0.056(3) 0.078(3) -0.022(3) -0.037(3) -0.005(3)
S1 0.0273(6) 0.0463(8) 0.0269(6) -0.0078(5) 0.0024(4) -0.0013(5)
loop_
_atom_type_symbol
_atom_type_description
_atom_type_scat_dispersion_real
_atom_type_scat_dispersion_imag
_atom_type_scat_source
C C 0.0033 0.0016 'International Tables Vol C Tables 4.2.6.8 and 6.1.1.4'
H H 0.0000 0.0000 'International Tables Vol C Tables 4.2.6.8 and 6.1.1.4'
N N 0.0061 0.0033 'International Tables Vol C Tables 4.2.6.8 and 6.1.1.4'
O O 0.0106 0.0060 'International Tables Vol C Tables 4.2.6.8 and 6.1.1.4'
S S 0.1246 0.1234 'International Tables Vol C Tables 4.2.6.8 and 6.1.1.4'
loop_
_geom_angle_atom_site_label_1
_geom_angle_atom_site_label_2
_geom_angle_atom_site_label_3
_geom_angle
C7 C1 C2 120.6(4)
C7 C1 S1 119.5(4)
C2 C1 S1 119.8(3)
C3 C2 C1 118.9(4)
C3 C2 H2 120.5
C1 C2 H2 120.5
C2 C3 C4 121.4(5)
C2 C3 H3 119.3
C4 C3 H3 119.3
C6 C4 C3 118.0(4)
C6 C4 C5 120.6(5)
C3 C4 C5 121.4(5)
C4 C5 H5A 109.5
C4 C5 H5B 109.5
H5A C5 H5B 109.5
C4 C5 H5C 109.5
H5A C5 H5C 109.5
H5B C5 H5C 109.5
C7 C6 C4 122.1(5)
C7 C6 H6 118.9
C4 C6 H6 118.9
C1 C7 C6 119.0(5)
C1 C7 H7 120.5
C6 C7 H7 120.5
N1 C8 H8A 109.5
N1 C8 H8B 109.5
H8A C8 H8B 109.5
N1 C8 H8C 109.5
H8A C8 H8C 109.5
H8B C8 H8C 109.5
N2 C9 N1 114.5(4)
N2 C9 C10 127.7(4)
N1 C9 C10 117.0(4)
C11 C10 C9 121.0(4)
C11 C10 H10 119.5
C9 C10 H10 119.5
C10 C11 C13 119.0(4)
C10 C11 C12 122.6(4)
C13 C11 C12 118.4(4)
C11 C12 H12A 109.5
C11 C12 H12B 109.5
H12A C12 H12B 109.5
C11 C12 H12C 109.5
H12A C12 H12C 109.5
H12B C12 H12C 109.5
C11 C13 C14 107.2(4)
C11 C13 H13A 110.3
C14 C13 H13A 110.3
C11 C13 H13B 110.3
C14 C13 H13B 110.3
H13A C13 H13B 108.5
C17 C14 C15 121.6(5)
C17 C14 C13 118.2(4)
C15 C14 C13 120.2(4)
O3 C15 C16 118.5(5)
O3 C15 C14 122.0(5)
C16 C15 C14 119.5(5)
C15 C16 H16A 109.5
C15 C16 H16B 109.5
H16A C16 H16B 109.5
C15 C16 H16C 109.5
H16A C16 H16C 109.5
H16B C16 H16C 109.5
C14 C17 N2 122.2(4)
C14 C17 C18 127.0(5)
N2 C17 C18 110.7(4)
C17 C18 H18A 109.5
C17 C18 H18B 109.5
H18A C18 H18B 109.5
C17 C18 H18C 109.5
H18A C18 H18C 109.5
H18B C18 H18C 109.5
C9 N1 C8 115.8(4)
C9 N1 S1 120.2(3)
C8 N1 S1 115.1(3)
C9 N2 C17 125.2(4)
O2 S1 O1 120.1(2)
O2 S1 N1 107.80(19)
O1 S1 N1 106.0(2)
O2 S1 C1 108.3(2)
O1 S1 C1 107.8(2)
N1 S1 C1 106.1(2)
loop_
_geom_bond_atom_site_label_1
_geom_bond_atom_site_label_2
_geom_bond_distance
C1 C7 1.374(6)
C1 C2 1.395(6)
C1 S1 1.766(4)
C2 C3 1.381(7)
C2 H2 0.9500
C3 C4 1.390(7)
C3 H3 0.9500
C4 C6 1.376(7)
C4 C5 1.506(7)
C5 H5A 0.9800
C5 H5B 0.9800
C5 H5C 0.9800
C6 C7 1.381(7)
C6 H6 0.9500
C7 H7 0.9500
C8 N1 1.475(6)
C8 H8A 0.9800
C8 H8B 0.9800
C8 H8C 0.9800
C9 N2 1.282(6)
C9 N1 1.443(6)
C9 C10 1.445(6)
C10 C11 1.341(7)
C10 H10 0.9500
C11 C13 1.500(7)
C11 C12 1.506(6)
C12 H12A 0.9800
C12 H12B 0.9800
C12 H12C 0.9800
C13 C14 1.511(7)
C13 H13A 0.9900
C13 H13B 0.9900
C14 C17 1.357(7)
C14 C15 1.491(7)
C15 O3 1.215(7)
C15 C16 1.479(8)
C16 H16A 0.9800
C16 H16B 0.9800
C16 H16C 0.9800
C17 N2 1.402(6)
C17 C18 1.494(7)
C18 H18A 0.9800
C18 H18B 0.9800
C18 H18C 0.9800
N1 S1 1.656(4)
O1 S1 1.433(3)
O2 S1 1.420(4)
