#------------------------------------------------------------------------------
#$Date: 2019-11-17 13:05:40 +0200 (Sun, 17 Nov 2019) $
#$Revision: 230041 $
#$URL: file:///home/coder/svn-repositories/cod/cif/1/54/89/1548935.cif $
#------------------------------------------------------------------------------
#
# This file is available in the Crystallography Open Database (COD),
# http://www.crystallography.net/
#
# All data on this site have been placed in the public domain by the
# contributors.
#
data_1548935
loop_
_publ_author_name
'Chen, Wen-Bin'
'Chen, Yan-Cong'
'Yang, Meng'
'Tong, Ming-Liang'
'Dong, Wen'
_publ_section_title
;
 Water molecule induced reversible single-crystal-to-single-crystal
 transformation between two trinuclear Fe(ii) complexes with different
 spin crossover behaviour.
;
_journal_issue                   12
_journal_name_full
'Dalton transactions (Cambridge, England : 2003)'
_journal_page_first              4307
_journal_page_last               4314
_journal_paper_doi               10.1039/c8dt00318a
_journal_volume                  47
_journal_year                    2018
_chemical_formula_moiety         'C17 H26 Fe3 N29 O S5, C N S'
_chemical_formula_sum            'C18 H26 Fe3 N30 O S6'
_chemical_formula_weight         1038.60
_space_group_crystal_system      orthorhombic
_space_group_IT_number           19
_space_group_name_Hall           'P 2ac 2ab'
_space_group_name_H-M_alt        'P 21 21 21'
_symmetry_space_group_name_Hall  'P 2ac 2ab'
_symmetry_space_group_name_H-M   'P 21 21 21'
_atom_sites_solution_hydrogens   mixed
_audit_creation_date             2018-02-08
_audit_creation_method
;
Olex2 1.2
(compiled 2017.08.10 svn.r3458 for OlexSys, GUI svn.r5381)
;
_audit_update_record
;
2018-02-09 deposited with the CCDC.
2018-02-09 downloaded from the CCDC.
;
_cell_angle_alpha                90
_cell_angle_beta                 90
_cell_angle_gamma                90
_cell_formula_units_Z            4
_cell_length_a                   10.972(4)
_cell_length_b                   11.475(6)
_cell_length_c                   31.878(11)
_cell_measurement_reflns_used    9879
_cell_measurement_temperature    150(2)
_cell_measurement_theta_max      24.666
_cell_measurement_theta_min      2.561
_cell_volume                     4014(3)
_computing_cell_refinement       'SAINT v8.37A (Bruker, 2015)'
_computing_data_reduction        'SAINT v8.37A (Bruker, 2015)'
_computing_molecular_graphics    'Olex2 (Dolomanov et al., 2009)'
_computing_publication_material  'Olex2 (Dolomanov et al., 2009)'
_computing_structure_refinement  'ShelXL (Sheldrick, 2015)'
_diffrn_ambient_temperature      150.15
_diffrn_measured_fraction_theta_full 0.993
_diffrn_measured_fraction_theta_max 0.993
_diffrn_measurement_device_type  'Bruker APEX-II CCD'
_diffrn_measurement_method       '\f and \w scans'
_diffrn_radiation_type           MoK\a
_diffrn_radiation_wavelength     0.71073
_diffrn_reflns_av_R_equivalents  0.0672
_diffrn_reflns_av_unetI/netI     0.0611
_diffrn_reflns_Laue_measured_fraction_full 0.993
_diffrn_reflns_Laue_measured_fraction_max 0.993
_diffrn_reflns_limit_h_max       13
_diffrn_reflns_limit_h_min       -13
_diffrn_reflns_limit_k_max       13
_diffrn_reflns_limit_k_min       -13
_diffrn_reflns_limit_l_max       38
_diffrn_reflns_limit_l_min       -38
_diffrn_reflns_number            40781
_diffrn_reflns_point_group_measured_fraction_full 0.993
_diffrn_reflns_point_group_measured_fraction_max 0.993
_diffrn_reflns_theta_full        25.518
_diffrn_reflns_theta_max         25.518
_diffrn_reflns_theta_min         2.556
_diffrn_standards_number         0
_exptl_absorpt_coefficient_mu    1.446
_exptl_absorpt_correction_T_max  0.7452
_exptl_absorpt_correction_T_min  0.6194
_exptl_absorpt_correction_type   multi-scan
_exptl_absorpt_process_details
'SADABS-2014/5 (Bruker,2014/5) was used for absorption correction. wR2(int) was 0.0791 before and 0.0696 after correction. The Ratio of minimum to maximum transmission is 0.8312. The \l/2 correction factor is Not present.'
_exptl_crystal_colour            red
_exptl_crystal_colour_primary    red
_exptl_crystal_density_diffrn    1.719
_exptl_crystal_description       block
_exptl_crystal_F_000             2104
_exptl_crystal_size_max          0.227
_exptl_crystal_size_mid          0.186
_exptl_crystal_size_min          0.102
_refine_diff_density_max         0.955
_refine_diff_density_min         -0.695
_refine_diff_density_rms         0.109
_refine_ls_abs_structure_details
;
 Flack x determined using 2137 quotients [(I+)-(I-)]/[(I+)+(I-)]
 (Parsons, Flack and Wagner, Acta Cryst. B69 (2013) 249-259).
;
_refine_ls_abs_structure_Flack   0.042(9)
_refine_ls_extinction_method     none
_refine_ls_goodness_of_fit_ref   1.068
_refine_ls_hydrogen_treatment    constr
_refine_ls_matrix_type           full
_refine_ls_number_parameters     528
_refine_ls_number_reflns         7423
_refine_ls_number_restraints     24
_refine_ls_restrained_S_all      1.079
_refine_ls_R_factor_all          0.0873
_refine_ls_R_factor_gt           0.0650
_refine_ls_shift/su_max          0.000
_refine_ls_shift/su_mean         0.000
_refine_ls_structure_factor_coef Fsqd
_refine_ls_weighting_details
'w=1/[\s^2^(Fo^2^)+26.4198P] where P=(Fo^2^+2Fc^2^)/3'
_refine_ls_weighting_scheme      calc
_refine_ls_wR_factor_gt          0.1262
_refine_ls_wR_factor_ref         0.1340
_reflns_Friedel_coverage         0.778
_reflns_Friedel_fraction_full    0.993
_reflns_Friedel_fraction_max     0.993
_reflns_number_gt                6008
_reflns_number_total             7423
_reflns_threshold_expression     'I > 2\s(I)'
_iucr_refine_instructions_details
;
TITL D_a.res in P2(1)2(1)2(1)
    d.res
    created by SHELXL-2018/1 at 11:01:26 on 08-Feb-2018
REM Old TITL D in P2(1)2(1)2(1)
REM SHELXT solution in P2(1)2(1)2(1)
REM R1 0.183, Rweak 0.056, Alpha 0.007, Orientation as input
REM Flack x = 0.108 ( 0.008 ) from Parsons' quotients
REM Formula found by SHELXT: C36 N13 S6 Fe3
CELL 0.71073 10.9722 11.4751 31.8776 90 90 90
ZERR 4 0.0042 0.0057 0.0108 0 0 0
LATT -1
SYMM 0.5-X,-Y,0.5+Z
SYMM -X,0.5+Y,0.5-Z
SYMM 0.5+X,0.5-Y,-Z
SFAC C H Fe N O S
UNIT 72 104 12 120 4 24
ISOR 0.005 0.01 N4 N23 N24
ISOR 0.005 0.01 N3

L.S. 100
PLAN  2
SIZE 0.102 0.186 0.227
TEMP -123
BOND $H
htab
LIST 6
MORE -1
CONF
fmap 2
acta 52
REM <olex2.extras>
REM <HklSrc "%.\\D.hkl">
REM </olex2.extras>

WGHT    0.000000   26.419800
FVAR       0.09976
FE1   3    0.179645    0.071823    0.120034    11.00000    0.03654    0.01911 =
         0.01874   -0.00154   -0.00846    0.00311
FE2   3    0.319363    0.116353    0.230517    11.00000    0.05111    0.02288 =
         0.01930   -0.00179   -0.01327    0.00068
FE3   3    0.051865    0.049073    0.006084    11.00000    0.08902    0.04032 =
         0.02067   -0.01244   -0.01253    0.02739
N1    4    0.315257    0.195943    0.135061    11.00000    0.07375    0.02288 =
         0.01818   -0.01050   -0.01395    0.01054
N2    4    0.362117    0.214615    0.175179    11.00000    0.03514    0.02608 =
         0.01560   -0.00267   -0.01217    0.00368
N3    4    0.424525    0.353452    0.133752    11.00000    0.03769    0.02200 =
         0.02378   -0.00165   -0.00304    0.00090
N4    4    0.480697    0.458340    0.121909    11.00000    0.05625    0.02981 =
         0.03613    0.00054   -0.00343    0.00384
AFIX   7
H4A   2    0.552260    0.444388    0.112499    11.00000   -1.20000
H4B   2    0.439200    0.491839    0.102508    11.00000   -1.20000
AFIX   0
N5    4    0.079456    0.113308    0.174964    11.00000    0.03680    0.02004 =
         0.02059    0.00178   -0.00178    0.00242
N6    4    0.130534    0.133085    0.214435    11.00000    0.04628    0.02106 =
         0.01138   -0.00733   -0.00164   -0.00410
N7    4   -0.063273    0.160754    0.218187    11.00000    0.03864    0.02537 =
         0.02760   -0.00050    0.00866    0.00027
N8    4   -0.180081    0.185981    0.234872    11.00000    0.06065    0.03667 =
         0.04987   -0.00734    0.03506   -0.00216
AFIX   7
H8A   2   -0.215344    0.122785    0.242886    11.00000   -1.20000
H8B   2   -0.171041    0.231209    0.256213    11.00000   -1.20000
AFIX   0
N9    4    0.267750   -0.064909    0.154197    11.00000    0.04311    0.02874 =
         0.01352    0.00106   -0.00883   -0.00606
N10   4    0.322399   -0.044407    0.193144    11.00000    0.04190    0.01996 =
         0.02164   -0.00148   -0.02116   -0.00047
N11   4    0.342714   -0.227724    0.176426    11.00000    0.03437    0.02046 =
         0.02536   -0.00964   -0.00776   -0.00003
N12   4    0.380743   -0.345853    0.179607    11.00000    0.05513    0.02686 =
         0.03580   -0.01078   -0.01796    0.00771
AFIX   7
H12A  2    0.319397   -0.393574    0.180179    11.00000   -1.20000
H12B  2    0.425791   -0.365276    0.158416    11.00000   -1.20000
AFIX   0
N13   4    0.084548    0.204877    0.088742    11.00000    0.03854    0.03222 =
         0.02167   -0.01008   -0.00962    0.00850
N14   4    0.029269    0.190659    0.050148    11.00000    0.06315    0.03334 =
         0.01980   -0.00451   -0.00051    0.02014
N15   4   -0.023276    0.358469    0.075693    11.00000    0.06876    0.02754 =
         0.01312    0.00156    0.00468    0.00828
N16   4   -0.077209    0.467582    0.078541    11.00000    0.07574    0.02679 =
         0.03842   -0.00155    0.01154    0.01451
AFIX   3
H16A  2   -0.019579    0.521432    0.082291    11.00000   -1.20000
H16B  2   -0.125679    0.468952    0.100981    11.00000   -1.20000
AFIX   0
N17   4    0.041500   -0.047921    0.100743    11.00000    0.04707    0.02315 =
         0.03074    0.00204    0.00494    0.00413
N18   4   -0.002746   -0.060349    0.059951    11.00000    0.05754    0.03417 =
         0.04259   -0.01786   -0.01535    0.01136
N19   4   -0.091211   -0.189609    0.098701    11.00000    0.03378    0.02709 =
         0.09007   -0.01957    0.00038    0.00200
N20   4   -0.160598   -0.287481    0.110231    11.00000    0.05609    0.03346 =
         0.18189   -0.03519    0.03060   -0.02134
AFIX   7
H20A  2   -0.124944   -0.323666    0.130209    11.00000   -1.20000
H20B  2   -0.230695   -0.265560    0.118414    11.00000   -1.20000
AFIX   0
N21   4    0.282792    0.032309    0.065883    11.00000    0.03518    0.02321 =
         0.06878   -0.00230    0.00219    0.00163
N22   4    0.230729    0.007694    0.028100    11.00000    0.08039    0.03609 =
         0.03560    0.01055    0.01372    0.02180
N23   4    0.418369   -0.042191    0.025473    11.00000    0.07749    0.08804 =
         0.07096    0.02958    0.02882    0.01010
N24   4    0.529568   -0.087761    0.010314    11.00000    0.13551    0.19576 =
         0.13792    0.04878    0.05954    0.04040
AFIX   7
H24A  2    0.592556   -0.048672    0.021599    11.00000   -1.20000
H24B  2    0.545501   -0.162984    0.016871    11.00000   -1.20000
AFIX   0
N25   4    0.280802    0.014900    0.283512    11.00000    0.08229    0.03171 =
         0.02091   -0.00036   -0.01603   -0.01061
N26   4    0.324577    0.270743    0.267143    11.00000    0.06850    0.03274 =
         0.02409   -0.00057   -0.00774   -0.00592
N27   4    0.067922   -0.097048   -0.035200    11.00000    0.10225    0.04547 =
         0.04125   -0.02184   -0.02331    0.02773
N28   4    0.117757    0.171532   -0.037801    11.00000    0.10614    0.05527 =
         0.01639   -0.00278   -0.00908    0.03493
N29   4   -0.133358    0.061019   -0.015319    11.00000    0.09490    0.10065 =
         0.03539   -0.01127   -0.02547    0.02679

N30   4    0.040708    0.628321    0.158403    11.00000    0.09110    0.03736 =
         0.05369    0.01162    0.00876    0.00381
C1    1    0.357110    0.279523    0.111144    11.00000    0.06113    0.02859 =
         0.02669   -0.00985   -0.00694    0.00767
AFIX  43
H1    2    0.341788    0.286632    0.081925    11.00000   -1.20000
AFIX   0
C2    1    0.425859    0.312101    0.172879    11.00000    0.05036    0.02969 =
         0.01707   -0.00889   -0.00700    0.01034
AFIX  43
H2    2    0.466793    0.347677    0.195805    11.00000   -1.20000
AFIX   0
C3    1   -0.035221    0.129280    0.178889    11.00000    0.04701    0.01476 =
         0.02032    0.00120   -0.00312   -0.00708
AFIX  43
H3    2   -0.092846    0.120073    0.156895    11.00000   -1.20000
AFIX   0
C4    1    0.040209    0.162039    0.238989    11.00000    0.08096    0.02029 =
         0.01036   -0.00230    0.00419    0.00182
AFIX  43
H4    2    0.048148    0.181329    0.267841    11.00000   -1.20000
AFIX   0
C5    1    0.282327   -0.175435    0.145053    11.00000    0.03282    0.03302 =
         0.02057   -0.00776   -0.00897   -0.00318
AFIX  43
H5    2    0.254562   -0.212547    0.120187    11.00000   -1.20000
AFIX   0
C6    1    0.365624   -0.144151    0.204580    11.00000    0.03662    0.03249 =
         0.02228    0.00119   -0.01942    0.00228
AFIX  43
H6    2    0.408693   -0.156696    0.230035    11.00000   -1.20000
AFIX   0
C7    1   -0.016071   -0.125752    0.123654    11.00000    0.04670    0.03392 =
         0.04316   -0.01260   -0.00808    0.01395
AFIX  43
H7    2   -0.006629   -0.135795    0.153056    11.00000   -1.20000
AFIX   0
C8    1   -0.080264   -0.145424    0.059492    11.00000    0.05713    0.04335 =
         0.07104   -0.01787   -0.02742    0.01174
AFIX  43
H8    2   -0.122764   -0.172568    0.035437    11.00000   -1.20000
AFIX   0
C9    1    0.399573    0.002380    0.063887    11.00000    0.07008    0.02960 =
         0.10065    0.01753    0.01153   -0.00170
AFIX  43
H9    2    0.458530    0.010874    0.085497    11.00000   -1.20000
AFIX   0
C10   1    0.314183   -0.040046    0.004736    11.00000    0.07770    0.10940 =
         0.04896    0.04404    0.03644    0.04714
AFIX  43
H10   2    0.302074   -0.068831   -0.022893    11.00000   -1.20000
AFIX   0
C11   1    0.048259    0.306589    0.103074    11.00000    0.04667    0.02787 =
         0.02160   -0.00580   -0.00704    0.00113
AFIX  43
H11   2    0.070579    0.338226    0.129521    11.00000   -1.20000
AFIX   0
C12   1   -0.037926    0.285267    0.043294    11.00000    0.06294    0.03394 =
         0.02748   -0.00588   -0.01275    0.01887
AFIX  43
H12   2   -0.087908    0.298710    0.019445    11.00000   -1.20000
AFIX   0
C13   1    0.267214   -0.050156    0.309961    11.00000    0.07809    0.03723 =
         0.02618   -0.00462   -0.01585   -0.00141
C14   1    0.319605    0.346462    0.290058    11.00000    0.05169    0.03957 =
         0.01333    0.00532   -0.00408   -0.00168
C15   1    0.060988   -0.164436   -0.061346    11.00000    0.09496    0.03591 =
         0.03672   -0.00937   -0.00199    0.00234
C16   1    0.146123    0.253518   -0.055430    11.00000    0.06242    0.06177 =
         0.02269   -0.01254   -0.01210    0.03380
C17   1   -0.200742    0.007387   -0.036651    11.00000    0.08315    0.08740 =
         0.02476    0.00458    0.00676    0.02540

C18   1    0.087147    0.548405    0.175452    11.00000    0.05716    0.03203 =
         0.02971   -0.00094    0.00725    0.01017
O1    5    0.512730    0.101031    0.240426    11.00000    0.06452    0.06793 =
         0.03836   -0.02590   -0.02064    0.02715
AFIX   3
H1A   2    0.549330    0.056031    0.227756    11.00000   -1.50000
H1B   2    0.535200    0.108571    0.266956    11.00000   -1.50000
AFIX   0
S1    6    0.252369   -0.148711    0.346833    11.00000    0.06892    0.04871 =
         0.02446    0.00882   -0.00915   -0.00647
S2    6    0.316650    0.456132    0.323547    11.00000    0.07837    0.02679 =
         0.02030   -0.00660   -0.00094    0.00619
S3    6    0.190311    0.368956   -0.082278    11.00000    0.10616    0.05351 =
         0.05096    0.00386   -0.01149    0.02294
S4    6    0.052352   -0.260494   -0.099170    11.00000    0.07429    0.04593 =
         0.03791   -0.02184    0.01196   -0.01040
S5    6   -0.281089   -0.060219   -0.071363    11.00000    0.06795    0.08218 =
         0.06109   -0.00054    0.01186   -0.00443

S6    6    0.153029    0.443182    0.200578    11.00000    0.07390    0.03000 =
         0.03288   -0.00516   -0.00748    0.00512
HKLF 4




REM  D_a.res in P2(1)2(1)2(1)
REM R1 =  0.0650 for    6008 Fo > 4sig(Fo)  and  0.0873 for all    7423 data
REM    528 parameters refined using     24 restraints

END  
     
WGHT      0.0000     26.4262 

REM Instructions for potential hydrogen bonds
EQIV $1 -x+1, y+1/2, -z+1/2
HTAB N4 S1_$1
EQIV $2 x+1/2, -y+1/2, -z
HTAB N4 S5_$2
EQIV $3 -x, y-1/2, -z+1/2
HTAB N8 S6_$3
EQIV $4 x, y-1, z
HTAB N12 S6_$4
HTAB N12 N4_$4
EQIV $5 x+1/2, -y-1/2, -z
HTAB N12 S4_$5
HTAB N16 S5_$2
EQIV $6 -x, y+1/2, -z+1/2
HTAB N16 S1_$6
HTAB N20 N30_$4
EQIV $7 x-1/2, -y-1/2, -z
HTAB N20 S4_$7
HTAB N24 S3_$2
HTAB N24 S4_$5
HTAB C4 N30_$3
HTAB C9 S3_$2
HTAB C10 N16_$2
HTAB C11 S6
EQIV $8 -x+1, y-1/2, -z+1/2
HTAB O1 S2_$8
HTAB O1 N12_$1

REM Highest difference peak  0.955,  deepest hole -0.695,  1-sigma level  0.109
Q1    1   0.5014 -0.1336  0.0033  11.00000  0.05    0.96
Q2    1  -0.3256 -0.0978 -0.0348  11.00000  0.05    0.81

  REM The information below was added by Olex2.
  REM
  REM R1 = 0.0650 for 6008 Fo > 4sig(Fo) and 0.0873 for all 40879 data
  REM n/a parameters refined using n/a restraints
  REM Highest difference peak 0.96, deepest hole -0.69
  REM Mean Shift 0, Max Shift 0.000.

  REM +++ Tabular Listing of Refinement Information +++
  REM R1_all = 0.0873
  REM R1_gt = 0.0650
  REM wR_ref = 0.1340
  REM GOOF = 1.068
  REM Shift_max = 0.000
  REM Shift_mean = 0
  REM Reflections_all = 40879
  REM Reflections_gt = 6008
  REM Parameters = n/a
  REM Hole = -0.69
  REM Peak = 0.96
  REM Flack = 0.042(9)

  
;
_cod_data_source_file            c8dt00318a2.cif
_cod_data_source_block           d
_cod_depositor_comments
'Adding full bibliography for 1548933--1548938.cif.'
_cod_database_code               1548935
_shelx_shelxl_version_number     2018/1
_shelx_space_group_comment
;
The symmetry employed for this shelxl refinement is uniquely defined
by the following loop, which should always be used as a source of
symmetry information in preference to the above space-group names.
They are only intended as comments.
;
_shelx_estimated_absorpt_t_max   0.867
_shelx_estimated_absorpt_t_min   0.735
_olex2_refinement_description
;
1. Fixed Uiso
 At 1.2 times of:
  All C(H) groups, All N(H,H) groups
 At 1.5 times of:
  All O(H,H) groups
2. Uiso/Uaniso restraints and constraints
Uanis(N4) \\sim Ueq, Uanis(N23) \\sim Ueq, Uanis(N24) \\sim Ueq: with sigma of
0.005 and sigma for terminal atoms of 0.01
Uanis(N3) \\sim Ueq: with sigma of 0.005 and sigma for terminal atoms of 0.01
3.a Riding coordinates:
 N16(H16A,H16B), O1(H1A,H1B)
3.b Rotating group:
 N4(H4A,H4B), N8(H8A,H8B), N12(H12A,H12B), N20(H20A,H20B), N24(H24A,H24B)
3.c Aromatic/amide H refined with riding coordinates:
 C1(H1), C2(H2), C3(H3), C4(H4), C5(H5), C6(H6), C7(H7), C8(H8), C9(H9),
 C10(H10), C11(H11), C12(H12)
;
_olex2_submission_special_instructions 'No special instructions were received'
loop_
_space_group_symop_operation_xyz
'x, y, z'
'-x+1/2, -y, z+1/2'
'-x, y+1/2, -z+1/2'
'x+1/2, -y+1/2, -z'
loop_
_atom_site_label
_atom_site_type_symbol
_atom_site_fract_x
_atom_site_fract_y
_atom_site_fract_z
_atom_site_U_iso_or_equiv
_atom_site_adp_type
_atom_site_occupancy
_atom_site_site_symmetry_order
_atom_site_calc_flag
_atom_site_refinement_flags_posn
_atom_site_refinement_flags_adp
Fe1 Fe 0.17965(15) 0.07182(12) 0.12003(4) 0.0248(3) Uani 1 1 d . .
Fe2 Fe 0.31936(17) 0.11635(12) 0.23052(4) 0.0311(4) Uani 1 1 d . .
Fe3 Fe 0.0519(2) 0.04907(16) 0.00608(5) 0.0500(5) Uani 1 1 d . .
N1 N 0.3153(11) 0.1959(7) 0.1351(2) 0.038(2) Uani 1 1 d . .
N2 N 0.3621(8) 0.2146(7) 0.1752(2) 0.026(2) Uani 1 1 d . .
N3 N 0.4245(8) 0.3535(7) 0.1338(2) 0.028(2) Uani 1 1 d . U
N4 N 0.4807(9) 0.4583(7) 0.1219(3) 0.041(2) Uani 1 1 d . U
H4A H 0.552260 0.444388 0.112499 0.049 Uiso 1 1 d GR .
H4B H 0.439200 0.491839 0.102508 0.049 Uiso 1 1 d GR .
N5 N 0.0795(8) 0.1133(7) 0.1750(2) 0.0258(19) Uani 1 1 d . .
N6 N 0.1305(8) 0.1331(7) 0.2144(2) 0.026(2) Uani 1 1 d . .
N7 N -0.0633(9) 0.1608(7) 0.2182(3) 0.031(2) Uani 1 1 d . .
N8 N -0.1801(10) 0.1860(8) 0.2349(3) 0.049(3) Uani 1 1 d . .
H8A H -0.215344 0.122785 0.242886 0.059 Uiso 1 1 d GR .
H8B H -0.171041 0.231209 0.256213 0.059 Uiso 1 1 d GR .
N9 N 0.2677(8) -0.0649(8) 0.1542(2) 0.028(2) Uani 1 1 d . .
N10 N 0.3224(9) -0.0444(7) 0.1931(2) 0.0278(19) Uani 1 1 d . .
N11 N 0.3427(8) -0.2277(7) 0.1764(2) 0.027(2) Uani 1 1 d . .
N12 N 0.3807(10) -0.3459(8) 0.1796(3) 0.039(2) Uani 1 1 d . .
H12A H 0.319397 -0.393574 0.180179 0.047 Uiso 1 1 d GR .
H12B H 0.425791 -0.365276 0.158416 0.047 Uiso 1 1 d GR .
N13 N 0.0845(8) 0.2049(8) 0.0887(3) 0.031(2) Uani 1 1 d . .
N14 N 0.0293(10) 0.1907(8) 0.0501(3) 0.039(3) Uani 1 1 d . .
N15 N -0.0233(9) 0.3585(7) 0.0757(2) 0.036(2) Uani 1 1 d . .
N16 N -0.0772(10) 0.4676(8) 0.0785(3) 0.047(3) Uani 1 1 d . .
H16A H -0.019579 0.521432 0.082291 0.056 Uiso 1 1 d R .
H16B H -0.125679 0.468952 0.100981 0.056 Uiso 1 1 d R .
N17 N 0.0415(9) -0.0479(7) 0.1007(3) 0.034(2) Uani 1 1 d . .
N18 N -0.0027(10) -0.0603(9) 0.0600(3) 0.045(3) Uani 1 1 d . .
N19 N -0.0912(9) -0.1896(8) 0.0987(4) 0.050(3) Uani 1 1 d . .
N20 N -0.1606(12) -0.2875(9) 0.1102(5) 0.090(5) Uani 1 1 d . .
H20A H -0.124944 -0.323666 0.130209 0.109 Uiso 1 1 d GR .
H20B H -0.230695 -0.265560 0.118414 0.109 Uiso 1 1 d GR .
N21 N 0.2828(9) 0.0323(8) 0.0659(3) 0.042(3) Uani 1 1 d . .
N22 N 0.2307(11) 0.0077(9) 0.0281(3) 0.051(3) Uani 1 1 d . .
N23 N 0.4184(14) -0.0422(13) 0.0255(4) 0.079(4) Uani 1 1 d . U
N24 N 0.5296(19) -0.088(2) 0.0103(6) 0.156(8) Uani 1 1 d . U
H24A H 0.592556 -0.048672 0.021599 0.188 Uiso 1 1 d GR .
H24B H 0.545501 -0.162984 0.016871 0.188 Uiso 1 1 d GR .
N25 N 0.2808(10) 0.0149(8) 0.2835(3) 0.045(3) Uani 1 1 d . .
N26 N 0.3246(11) 0.2707(8) 0.2671(3) 0.042(2) Uani 1 1 d . .
N27 N 0.0679(13) -0.0970(9) -0.0352(3) 0.063(4) Uani 1 1 d . .
N28 N 0.1178(12) 0.1715(10) -0.0378(3) 0.059(4) Uani 1 1 d . .
N29 N -0.1334(13) 0.0610(13) -0.0153(3) 0.077(4) Uani 1 1 d . .
N30 N 0.0407(12) 0.6283(10) 0.1584(3) 0.061(3) Uani 1 1 d . .
C1 C 0.3571(11) 0.2795(9) 0.1111(3) 0.039(3) Uani 1 1 d . .
H1 H 0.341788 0.286632 0.081925 0.047 Uiso 1 1 calc R .
C2 C 0.4259(11) 0.3121(9) 0.1729(3) 0.032(3) Uani 1 1 d . .
H2 H 0.466793 0.347677 0.195805 0.039 Uiso 1 1 calc R .
C3 C -0.0352(11) 0.1293(8) 0.1789(3) 0.027(2) Uani 1 1 d . .
H3 H -0.092846 0.120073 0.156895 0.033 Uiso 1 1 calc R .
C4 C 0.0402(13) 0.1620(9) 0.2390(3) 0.037(3) Uani 1 1 d . .
H4 H 0.048148 0.181329 0.267841 0.045 Uiso 1 1 calc R .
C5 C 0.2823(10) -0.1754(9) 0.1451(3) 0.029(3) Uani 1 1 d . .
H5 H 0.254562 -0.212547 0.120187 0.035 Uiso 1 1 calc R .
C6 C 0.3656(10) -0.1442(9) 0.2046(3) 0.030(3) Uani 1 1 d . .
H6 H 0.408693 -0.156696 0.230035 0.037 Uiso 1 1 calc R .
C7 C -0.0161(11) -0.1258(10) 0.1237(4) 0.041(3) Uani 1 1 d . .
H7 H -0.006629 -0.135795 0.153056 0.050 Uiso 1 1 calc R .
C8 C -0.0803(13) -0.1454(12) 0.0595(5) 0.057(4) Uani 1 1 d . .
H8 H -0.122764 -0.172568 0.035437 0.069 Uiso 1 1 calc R .
C9 C 0.3996(15) 0.0024(11) 0.0639(6) 0.067(5) Uani 1 1 d . .
H9 H 0.458530 0.010874 0.085497 0.080 Uiso 1 1 calc R .
C10 C 0.3142(15) -0.0400(15) 0.0047(4) 0.079(5) Uani 1 1 d . .
H10 H 0.302074 -0.068831 -0.022893 0.094 Uiso 1 1 calc R .
C11 C 0.0483(11) 0.3066(9) 0.1031(3) 0.032(3) Uani 1 1 d . .
H11 H 0.070579 0.338226 0.129521 0.038 Uiso 1 1 calc R .
C12 C -0.0379(13) 0.2853(10) 0.0433(3) 0.041(3) Uani 1 1 d . .
H12 H -0.087908 0.298710 0.019445 0.050 Uiso 1 1 calc R .
C13 C 0.2672(13) -0.0502(11) 0.3100(4) 0.047(3) Uani 1 1 d . .
C14 C 0.3196(12) 0.3465(10) 0.2901(3) 0.035(3) Uani 1 1 d . .
C15 C 0.0610(15) -0.1644(11) -0.0613(4) 0.056(4) Uani 1 1 d . .
C16 C 0.1461(13) 0.2535(13) -0.0554(4) 0.049(4) Uani 1 1 d . .
C17 C -0.2007(16) 0.0074(14) -0.0367(4) 0.065(5) Uani 1 1 d . .
C18 C 0.0871(12) 0.5484(10) 0.1755(3) 0.040(3) Uani 1 1 d . .
O1 O 0.5127(8) 0.1010(8) 0.2404(2) 0.057(3) Uani 1 1 d . .
H1A H 0.549330 0.056031 0.227756 0.085 Uiso 1 1 d R .
H1B H 0.535200 0.108571 0.266956 0.085 Uiso 1 1 d R .
S1 S 0.2524(3) -0.1487(3) 0.34683(9) 0.0474(8) Uani 1 1 d . .
S2 S 0.3166(4) 0.4561(2) 0.32355(8) 0.0418(7) Uani 1 1 d . .
S3 S 0.1903(5) 0.3690(3) -0.08228(11) 0.0702(11) Uani 1 1 d . .
S4 S 0.0524(4) -0.2605(3) -0.09917(10) 0.0527(9) Uani 1 1 d . .
S5 S -0.2811(4) -0.0602(4) -0.07136(12) 0.0704(11) Uani 1 1 d . .
S6 S 0.1530(3) 0.4432(3) 0.20058(9) 0.0456(8) Uani 1 1 d . .
loop_
_atom_site_aniso_label
_atom_site_aniso_U_11
_atom_site_aniso_U_22
_atom_site_aniso_U_33
_atom_site_aniso_U_23
_atom_site_aniso_U_13
_atom_site_aniso_U_12
Fe1 0.0365(8) 0.0191(7) 0.0187(6) -0.0015(5) -0.0085(7) 0.0031(7)
Fe2 0.0511(10) 0.0229(7) 0.0193(7) -0.0018(6) -0.0133(8) 0.0007(8)
Fe3 0.0890(15) 0.0403(10) 0.0207(8) -0.0124(7) -0.0125(9) 0.0274(10)
N1 0.074(7) 0.023(5) 0.018(4) -0.010(4) -0.014(5) 0.011(5)
N2 0.035(5) 0.026(5) 0.016(4) -0.003(4) -0.012(4) 0.004(4)
N3 0.038(4) 0.022(4) 0.024(4) -0.002(3) -0.003(3) 0.001(4)
N4 0.056(6) 0.030(5) 0.036(5) 0.001(4) -0.003(5) 0.004(4)
N5 0.037(6) 0.020(4) 0.021(4) 0.002(4) -0.002(4) 0.002(4)
N6 0.046(6) 0.021(4) 0.011(4) -0.007(3) -0.002(4) -0.004(4)
N7 0.039(6) 0.025(5) 0.028(5) -0.001(4) 0.009(4) 0.000(4)
N8 0.061(7) 0.037(5) 0.050(6) -0.007(5) 0.035(6) -0.002(6)
N9 0.043(5) 0.029(5) 0.014(4) 0.001(4) -0.009(4) -0.006(4)
N10 0.042(5) 0.020(4) 0.022(4) -0.001(3) -0.021(4) 0.000(5)
N11 0.034(6) 0.020(4) 0.025(4) -0.010(3) -0.008(4) 0.000(4)
N12 0.055(7) 0.027(5) 0.036(5) -0.011(4) -0.018(5) 0.008(5)
N13 0.039(6) 0.032(5) 0.022(4) -0.010(4) -0.010(4) 0.009(4)
N14 0.063(7) 0.033(5) 0.020(5) -0.005(4) -0.001(5) 0.020(5)
N15 0.069(7) 0.028(5) 0.013(4) 0.002(4) 0.005(4) 0.008(5)
N16 0.076(8) 0.027(5) 0.038(5) -0.002(4) 0.012(6) 0.015(5)
N17 0.047(6) 0.023(5) 0.031(5) 0.002(4) 0.005(5) 0.004(5)
N18 0.058(7) 0.034(5) 0.043(6) -0.018(5) -0.015(5) 0.011(5)
N19 0.034(6) 0.027(5) 0.090(9) -0.020(6) 0.000(6) 0.002(5)
N20 0.056(9) 0.033(6) 0.182(16) -0.035(8) 0.031(10) -0.021(6)
N21 0.035(6) 0.023(5) 0.069(7) -0.002(5) 0.002(5) 0.002(4)
N22 0.080(9) 0.036(6) 0.036(6) 0.011(5) 0.014(6) 0.022(6)
N23 0.077(6) 0.088(6) 0.071(6) 0.030(5) 0.029(5) 0.010(5)
N24 0.136(12) 0.196(13) 0.138(11) 0.049(11) 0.060(10) 0.040(11)
N25 0.082(9) 0.032(5) 0.021(5) 0.000(4) -0.016(5) -0.011(5)
N26 0.069(7) 0.033(5) 0.024(4) -0.001(4) -0.008(6) -0.006(6)
N27 0.102(10) 0.045(7) 0.041(6) -0.022(5) -0.023(7) 0.028(7)
N28 0.106(11) 0.055(7) 0.016(5) -0.003(5) -0.009(6) 0.035(7)
N29 0.095(11) 0.101(10) 0.035(6) -0.011(7) -0.025(7) 0.027(9)
N30 0.091(9) 0.037(6) 0.054(7) 0.012(5) 0.009(7) 0.004(7)
C1 0.061(9) 0.029(6) 0.027(6) -0.010(5) -0.007(6) 0.008(6)
C2 0.050(7) 0.030(6) 0.017(5) -0.009(4) -0.007(5) 0.010(6)
C3 0.047(8) 0.015(5) 0.020(5) 0.001(4) -0.003(5) -0.007(5)
C4 0.081(10) 0.020(5) 0.010(5) -0.002(4) 0.004(6) 0.002(6)
C5 0.033(6) 0.033(6) 0.021(5) -0.008(4) -0.009(4) -0.003(5)
C6 0.037(6) 0.032(6) 0.022(5) 0.001(5) -0.019(5) 0.002(5)
C7 0.047(8) 0.034(6) 0.043(7) -0.013(6) -0.008(6) 0.014(6)
C8 0.057(9) 0.043(8) 0.071(10) -0.018(7) -0.027(8) 0.012(7)
C9 0.070(12) 0.030(7) 0.101(13) 0.018(8) 0.012(9) -0.002(7)
C10 0.078(11) 0.109(13) 0.049(8) 0.044(9) 0.036(9) 0.047(11)
C11 0.047(7) 0.028(6) 0.022(5) -0.006(4) -0.007(5) 0.001(5)
C12 0.063(9) 0.034(6) 0.027(6) -0.006(5) -0.013(6) 0.019(6)
C13 0.078(10) 0.037(7) 0.026(6) -0.005(6) -0.016(6) -0.001(7)
C14 0.052(7) 0.040(6) 0.013(5) 0.005(5) -0.004(5) -0.002(7)
C15 0.095(12) 0.036(7) 0.037(7) -0.009(6) -0.002(8) 0.002(8)
C16 0.062(10) 0.062(9) 0.023(6) -0.013(6) -0.012(6) 0.034(7)
C17 0.083(12) 0.087(11) 0.025(6) 0.005(7) 0.007(7) 0.025(10)
C18 0.057(8) 0.032(7) 0.030(6) -0.001(5) 0.007(6) 0.010(6)
O1 0.065(6) 0.068(6) 0.038(5) -0.026(4) -0.021(4) 0.027(5)
S1 0.069(2) 0.0487(19) 0.0245(14) 0.0088(13) -0.0092(15) -0.0065(17)
S2 0.078(2) 0.0268(14) 0.0203(12) -0.0066(11) -0.0009(15) 0.0062(17)
S3 0.106(3) 0.054(2) 0.051(2) 0.0039(17) -0.011(2) 0.023(2)
S4 0.074(3) 0.0459(19) 0.0379(17) -0.0218(15) 0.0120(18) -0.0104(18)
S5 0.068(3) 0.082(3) 0.061(2) -0.001(2) 0.012(2) -0.004(2)
S6 0.074(2) 0.0300(15) 0.0329(15) -0.0052(13) -0.0075(15) 0.0051(16)
loop_
_atom_type_symbol
_atom_type_description
_atom_type_scat_dispersion_real
_atom_type_scat_dispersion_imag
_atom_type_scat_source
C C 0.0033 0.0016 'International Tables Vol C Tables 4.2.6.8 and 6.1.1.4'
H H 0.0000 0.0000 'International Tables Vol C Tables 4.2.6.8 and 6.1.1.4'
Fe Fe 0.3463 0.8444 'International Tables Vol C Tables 4.2.6.8 and 6.1.1.4'
N N 0.0061 0.0033 'International Tables Vol C Tables 4.2.6.8 and 6.1.1.4'
O O 0.0106 0.0060 'International Tables Vol C Tables 4.2.6.8 and 6.1.1.4'
S S 0.1246 0.1234 'International Tables Vol C Tables 4.2.6.8 and 6.1.1.4'
loop_
_geom_angle_atom_site_label_1
_geom_angle_atom_site_label_2
_geom_angle_atom_site_label_3
_geom_angle
N1 Fe1 N5 91.5(3)
N1 Fe1 N9 93.5(3)
N1 Fe1 N17 176.1(3)
N5 Fe1 N9 88.8(3)
N5 Fe1 N17 90.8(3)
N13 Fe1 N1 88.1(4)
N13 Fe1 N5 88.4(3)
N13 Fe1 N9 176.7(4)
N13 Fe1 N17 88.8(3)
N13 Fe1 N21 92.0(4)
N17 Fe1 N9 89.7(3)
N21 Fe1 N1 87.3(4)
N21 Fe1 N5 178.8(4)
N21 Fe1 N9 90.9(4)
N21 Fe1 N17 90.4(3)
N2 Fe2 N10 89.5(3)
N2 Fe2 O1 87.0(3)
N6 Fe2 N2 88.1(3)
N6 Fe2 N10 87.7(3)
N6 Fe2 O1 174.6(3)
N25 Fe2 N2 177.8(4)
N25 Fe2 N6 92.7(4)
N25 Fe2 N10 88.5(3)
N25 Fe2 N26 91.5(4)
N25 Fe2 O1 92.0(4)
N26 Fe2 N2 90.4(3)
N26 Fe2 N6 94.8(4)
N26 Fe2 N10 177.5(4)
N26 Fe2 O1 87.8(4)
O1 Fe2 N10 89.8(3)
N14 Fe3 N18 83.7(3)
N22 Fe3 N14 93.4(4)
N22 Fe3 N18 82.4(4)
N22 Fe3 N27 87.3(4)
N22 Fe3 N29 170.8(5)
N27 Fe3 N14 176.7(5)
N27 Fe3 N18 93.2(4)
N27 Fe3 N29 86.1(5)
N28 Fe3 N14 88.3(4)
N28 Fe3 N18 170.5(4)
N28 Fe3 N22 92.9(4)
N28 Fe3 N27 94.9(4)
N28 Fe3 N29 94.1(5)
N29 Fe3 N14 92.9(5)
N29 Fe3 N18 91.5(5)
N2 N1 Fe1 124.8(7)
C1 N1 Fe1 127.5(7)
C1 N1 N2 107.0(9)
N1 N2 Fe2 126.3(7)
C2 N2 Fe2 127.3(6)
C2 N2 N1 105.9(8)
C1 N3 N4 130.0(9)
C2 N3 N4 123.5(9)
C2 N3 C1 106.5(9)
N3 N4 H4A 109.7
N3 N4 H4B 110.2
H4A N4 H4B 108.5
N6 N5 Fe1 124.9(7)
C3 N5 Fe1 128.6(7)
C3 N5 N6 106.5(8)
N5 N6 Fe2 126.1(6)
C4 N6 Fe2 127.8(7)
C4 N6 N5 106.1(9)
C3 N7 N8 127.9(10)
C4 N7 N8 126.1(9)
C4 N7 C3 106.0(9)
N7 N8 H8A 110.2
N7 N8 H8B 108.4
H8A N8 H8B 109.0
N10 N9 Fe1 121.5(6)
C5 N9 Fe1 130.6(7)
C5 N9 N10 107.9(8)
N9 N10 Fe2 128.0(6)
C6 N10 Fe2 126.6(6)
C6 N10 N9 105.0(8)
C5 N11 N12 128.6(8)
C6 N11 N12 125.5(8)
C6 N11 C5 105.8(8)
N11 N12 H12A 112.0
N11 N12 H12B 110.9
H12A N12 H12B 107.3
N14 N13 Fe1 123.7(6)
C11 N13 Fe1 129.1(7)
C11 N13 N14 106.3(8)
N13 N14 Fe3 128.1(7)
C12 N14 Fe3 124.8(7)
C12 N14 N13 107.1(8)
C11 N15 N16 128.2(9)
C11 N15 C12 107.4(9)
C12 N15 N16 124.4(10)
N15 N16 H16A 109.4
N15 N16 H16B 108.8
H16A N16 H16B 107.6
N18 N17 Fe1 125.5(7)
C7 N17 Fe1 128.1(8)
C7 N17 N18 106.3(9)
N17 N18 Fe3 124.9(7)
C8 N18 Fe3 126.7(9)
C8 N18 N17 108.4(11)
C7 N19 N20 127.3(13)
C8 N19 N20 126.1(13)
C8 N19 C7 106.5(11)
N19 N20 H20A 109.6
N19 N20 H20B 109.5
H20A N20 H20B 109.2
N22 N21 Fe1 122.8(8)
C9 N21 Fe1 127.7(11)
C9 N21 N22 108.0(12)
N21 N22 Fe3 129.0(8)
C10 N22 Fe3 123.5(10)
C10 N22 N21 107.3(12)
C9 N23 N24 125.8(17)
C10 N23 N24 125.7(16)
C10 N23 C9 108.4(14)
N23 N24 H24A 110.0
N23 N24 H24B 116.2
H24A N24 H24B 103.6
C13 N25 Fe2 172.0(11)
C14 N26 Fe2 172.1(10)
C15 N27 Fe3 167.6(12)
C16 N28 Fe3 166.0(10)
C17 N29 Fe3 138.1(12)
N1 C1 N3 110.2(9)
N1 C1 H1 124.9
N3 C1 H1 124.9
N2 C2 N3 110.3(9)
N2 C2 H2 124.8
N3 C2 H2 124.8
N5 C3 N7 110.9(10)
N5 C3 H3 124.6
N7 C3 H3 124.6
N6 C4 N7 110.5(8)
N6 C4 H4 124.7
N7 C4 H4 124.8
N9 C5 N11 109.1(8)
N9 C5 H5 125.5
N11 C5 H5 125.5
N10 C6 N11 112.2(8)
N10 C6 H6 123.9
N11 C6 H6 123.9
N17 C7 N19 109.4(11)
N17 C7 H7 125.3
N19 C7 H7 125.3
N18 C8 N19 109.3(12)
N18 C8 H8 125.4
N19 C8 H8 125.4
N21 C9 N23 106.9(16)
N21 C9 H9 126.6
N23 C9 H9 126.6
N22 C10 N23 109.3(15)
N22 C10 H10 125.4
N23 C10 H10 125.4
N13 C11 N15 110.6(9)
N13 C11 H11 124.7
N15 C11 H11 124.7
N14 C12 N15 108.6(10)
N14 C12 H12 125.7
N15 C12 H12 125.7
N25 C13 S1 177.0(13)
N26 C14 S2 178.4(13)
N27 C15 S4 179.3(17)
N28 C16 S3 177.7(12)
N29 C17 S5 171.9(14)
N30 C18 S6 177.2(12)
Fe2 O1 H1A 119.5
Fe2 O1 H1B 114.0
H1A O1 H1B 115.0
loop_
_geom_bond_atom_site_label_1
_geom_bond_atom_site_label_2
_geom_bond_distance
Fe1 N1 2.115(10)
Fe1 N5 2.122(8)
Fe1 N9 2.141(9)
Fe1 N13 2.101(9)
Fe1 N17 2.136(9)
Fe1 N21 2.113(11)
Fe2 N2 2.146(8)
Fe2 N6 2.143(9)
Fe2 N10 2.196(8)
Fe2 N25 2.095(10)
Fe2 N26 2.123(9)
Fe2 O1 2.152(9)
Fe3 N14 2.162(9)
Fe3 N18 2.210(11)
Fe3 N22 2.138(12)
Fe3 N27 2.139(10)
Fe3 N28 2.111(13)
Fe3 N29 2.148(13)
N1 N2 1.395(11)
N1 C1 1.308(14)
N2 C2 1.321(14)
N3 N4 1.404(12)
N3 C1 1.337(13)
N3 C2 1.335(12)
N4 H4A 0.8557
N4 H4B 0.8588
N5 N6 1.396(11)
N5 C3 1.278(14)
N6 C4 1.306(14)
N7 N8 1.417(13)
N7 C3 1.340(12)
N7 C4 1.315(15)
N8 H8A 0.8607
N8 H8B 0.8614
N9 N10 1.399(10)
N9 C5 1.311(13)
N10 C6 1.291(13)
N11 N12 1.422(12)
N11 C5 1.341(13)
N11 C6 1.337(13)
N12 H12A 0.8679
N12 H12B 0.8662
N13 N14 1.381(12)
N13 C11 1.315(13)
N14 C12 1.330(14)
N15 N16 1.388(12)
N15 C11 1.316(14)
N15 C12 1.341(13)
N16 H16A 0.8922
N16 H16B 0.8915
N17 N18 1.395(12)
N17 C7 1.315(15)
N18 C8 1.295(17)
N19 N20 1.406(15)
N19 C7 1.360(15)
N19 C8 1.354(18)
N20 H20A 0.8550
N20 H20B 0.8502
N21 N22 1.363(14)
N21 C9 1.328(18)
N22 C10 1.301(16)
N23 N24 1.41(2)
N23 C9 1.34(2)
N23 C10 1.32(2)
N24 H24A 0.8990
N24 H24B 0.9052
N25 C13 1.136(14)
N26 C14 1.136(13)
N27 C15 1.139(15)
N28 C16 1.139(17)
N29 C17 1.178(19)
N30 C18 1.182(15)
C1 H1 0.9500
C2 H2 0.9500
C3 H3 0.9500
C4 H4 0.9500
C5 H5 0.9500
C6 H6 0.9500
C7 H7 0.9500
C8 H8 0.9500
C9 H9 0.9500
C10 H10 0.9500
C11 H11 0.9500
C12 H12 0.9500
C13 S1 1.639(13)
C14 S2 1.651(11)
C15 S4 1.636(12)
C16 S3 1.650(16)
C17 S5 1.614(17)
C18 S6 1.619(12)
O1 H1A 0.7688
O1 H1B 0.8852
loop_
_geom_torsion_atom_site_label_1
_geom_torsion_atom_site_label_2
_geom_torsion_atom_site_label_3
_geom_torsion_atom_site_label_4
_geom_torsion
Fe1 N1 N2 Fe2 4.5(12)
Fe1 N1 N2 C2 -168.4(7)
Fe1 N1 C1 N3 168.2(7)
Fe1 N5 N6 Fe2 -4.1(11)
Fe1 N5 N6 C4 176.6(7)
Fe1 N5 C3 N7 -176.4(6)
Fe1 N9 N10 Fe2 5.9(11)
Fe1 N9 N10 C6 179.9(7)
Fe1 N9 C5 N11 -179.4(7)
Fe1 N13 N14 Fe3 -13.3(13)
Fe1 N13 N14 C12 170.1(8)
Fe1 N13 C11 N15 -171.1(8)
Fe1 N17 N18 Fe3 -4.0(12)
Fe1 N17 N18 C8 176.3(8)
Fe1 N17 C7 N19 -175.9(7)
Fe1 N21 N22 Fe3 20.5(13)
Fe1 N21 N22 C10 -164.5(9)
Fe1 N21 C9 N23 164.9(9)
Fe2 N2 C2 N3 -174.6(7)
Fe2 N6 C4 N7 -178.6(7)
Fe2 N10 C6 N11 173.6(7)
Fe3 N14 C12 N15 -175.1(8)
Fe3 N18 C8 N19 -178.8(8)
Fe3 N22 C10 N23 172.7(9)
N1 N2 C2 N3 -1.7(12)
N2 N1 C1 N3 -2.3(13)
N4 N3 C1 N1 -175.7(10)
N4 N3 C2 N2 177.6(9)
N5 N6 C4 N7 0.7(11)
N6 N5 C3 N7 1.3(11)
N8 N7 C3 N5 -179.9(9)
N8 N7 C4 N6 179.1(9)
N9 N10 C6 N11 -0.5(12)
N10 N9 C5 N11 0.6(12)
N12 N11 C5 N9 -178.5(10)
N12 N11 C6 N10 178.6(10)
N13 N14 C12 N15 1.7(14)
N14 N13 C11 N15 -1.7(13)
N16 N15 C11 N13 -178.1(10)
N16 N15 C12 N14 178.1(10)
N17 N18 C8 N19 0.9(14)
N18 N17 C7 N19 2.3(12)
N20 N19 C7 N17 174.2(11)
N20 N19 C8 N18 -175.6(11)
N21 N22 C10 N23 -2.7(16)
N22 N21 C9 N23 -1.1(14)
N24 N23 C9 N21 -178.3(17)
N24 N23 C10 N22 179.8(17)
C1 N1 N2 Fe2 175.4(7)
C1 N1 N2 C2 2.4(12)
C1 N3 C2 N2 0.4(13)
C2 N3 C1 N1 1.2(13)
C3 N5 N6 Fe2 178.1(7)
C3 N5 N6 C4 -1.2(10)
C3 N7 C4 N6 0.1(11)
C4 N7 C3 N5 -0.9(11)
C5 N9 N10 Fe2 -174.1(8)
C5 N9 N10 C6 -0.1(11)
C5 N11 C6 N10 0.9(13)
C6 N11 C5 N9 -0.9(12)
C7 N17 N18 Fe3 177.7(7)
C7 N17 N18 C8 -2.0(12)
C7 N19 C8 N18 0.5(14)
C8 N19 C7 N17 -1.8(13)
C9 N21 N22 Fe3 -172.7(9)
C9 N21 N22 C10 2.3(14)
C9 N23 C10 N22 2.0(18)
C10 N23 C9 N21 -0.5(17)
C11 N13 N14 Fe3 176.6(8)
C11 N13 N14 C12 -0.1(13)
C11 N15 C12 N14 -2.7(14)
C12 N15 C11 N13 2.7(14)
