#------------------------------------------------------------------------------
#$Date: 2016-02-18 17:37:37 +0200 (Thu, 18 Feb 2016) $
#$Revision: 176729 $
#$URL: svn://www.crystallography.net/cod/cif/1/50/17/1501712.cif $
#------------------------------------------------------------------------------
#
# This file is available in the Crystallography Open Database (COD),
# http://www.crystallography.net/
#
# All data on this site have been placed in the public domain by the
# contributors.
#
data_1501712
loop_
_publ_author_name
'Lethesh, Kallidanthiyil Chellappan'
'Van Hecke, Kristof'
'Van Meervelt, Luc'
'Nockemann, Peter'
'Kirchner, Barbara'
'Zahn, Stefan'
'Parac-Vogt, Tatjana N'
'Dehaen, Wim'
'Binnemans, Koen'
_publ_section_title
;
 Nitrile-functionalized pyridinium, pyrrolidinium, and piperidinium ionic
 liquids.
;
_journal_issue                   26
_journal_name_full               'The journal of physical chemistry. B'
_journal_page_first              8424
_journal_page_last               8438
_journal_paper_doi               10.1021/jp2027675
_journal_volume                  115
_journal_year                    2011
_chemical_formula_moiety         'C9 H11 N2, C2 F6 N O4 S2'
_chemical_formula_sum            'C11 H11 F6 N3 O4 S2'
_chemical_formula_weight         427.37
_chemical_name_systematic
; 
 ? 
;
_space_group_IT_number           14
_symmetry_cell_setting           monoclinic
_symmetry_space_group_name_Hall  '-P 2ybc'
_symmetry_space_group_name_H-M   'P 1 21/c 1'
_atom_sites_solution_hydrogens   geom
_atom_sites_solution_primary     direct
_atom_sites_solution_secondary   difmap
_audit_creation_method           SHELXL-97
_cell_angle_alpha                90.00
_cell_angle_beta                 92.159(18)
_cell_angle_gamma                90.00
_cell_formula_units_Z            4
_cell_length_a                   8.255(3)
_cell_length_b                   13.880(3)
_cell_length_c                   14.205(4)
_cell_measurement_temperature    100(2)
_cell_volume                     1626.4(8)
_computing_cell_refinement       'Bruker SAINT'
_computing_data_collection       'Bruker SMART'
_computing_data_reduction        'Bruker SAINT'
_computing_publication_material  Platon
_computing_structure_refinement  'SHELXL-97 (Sheldrick, 1997)'
_computing_structure_solution    'SHELXS-97 (Sheldrick, 1990)'
_diffrn_ambient_temperature      100(2)
_diffrn_measured_fraction_theta_full 0.990
_diffrn_measured_fraction_theta_max 0.990
_diffrn_measurement_device_type  'Bruker SMART 6000'
_diffrn_measurement_method       '\w and \f scans'
_diffrn_radiation_monochromator  'crossed G\"obel mirrors'
_diffrn_radiation_source         'fine-focus sealed tube'
_diffrn_radiation_type           CuK\a
_diffrn_radiation_wavelength     1.54178
_diffrn_reflns_av_R_equivalents  0.0353
_diffrn_reflns_av_sigmaI/netI    0.0231
_diffrn_reflns_limit_h_max       9
_diffrn_reflns_limit_h_min       -9
_diffrn_reflns_limit_k_max       16
_diffrn_reflns_limit_k_min       -16
_diffrn_reflns_limit_l_max       16
_diffrn_reflns_limit_l_min       -16
_diffrn_reflns_number            15061
_diffrn_reflns_theta_full        66.59
_diffrn_reflns_theta_max         66.59
_diffrn_reflns_theta_min         4.46
_exptl_absorpt_coefficient_mu    3.851
_exptl_absorpt_correction_T_max  0.680
_exptl_absorpt_correction_T_min  0.448
_exptl_absorpt_correction_type   multi-scan
_exptl_absorpt_process_details   'Bruker SADABS'
_exptl_crystal_colour            colourless
_exptl_crystal_density_diffrn    1.745
_exptl_crystal_density_method    'not measured'
_exptl_crystal_description       rod
_exptl_crystal_F_000             864
_exptl_crystal_size_max          0.3
_exptl_crystal_size_mid          0.15
_exptl_crystal_size_min          0.1
_refine_diff_density_max         0.410
_refine_diff_density_min         -0.383
_refine_diff_density_rms         0.060
_refine_ls_extinction_method     none
_refine_ls_goodness_of_fit_ref   1.066
_refine_ls_hydrogen_treatment    constr
_refine_ls_matrix_type           full
_refine_ls_number_parameters     236
_refine_ls_number_reflns         2849
_refine_ls_number_restraints     0
_refine_ls_restrained_S_all      1.066
_refine_ls_R_factor_all          0.0310
_refine_ls_R_factor_gt           0.0291
_refine_ls_shift/su_max          0.000
_refine_ls_shift/su_mean         0.000
_refine_ls_structure_factor_coef Fsqd
_refine_ls_weighting_details
'calc w=1/[\s^2^(Fo^2^)+(0.0385P)^2^+1.0807P] where P=(Fo^2^+2Fc^2^)/3'
_refine_ls_weighting_scheme      calc
_refine_ls_wR_factor_gt          0.0741
_refine_ls_wR_factor_ref         0.0763
_reflns_number_gt                2676
_reflns_number_total             2849
_reflns_threshold_expression     >2sigma(I)
_cod_data_source_file            jp2027675_si_004.cif
_cod_data_source_block           wg220
_cod_original_cell_volume        1626.5(8)
_cod_original_sg_symbol_H-M      'P 21/c'
_cod_database_code               1501712
loop_
_symmetry_equiv_pos_as_xyz
'x, y, z'
'-x, y+1/2, -z+1/2'
'-x, -y, -z'
'x, -y-1/2, z-1/2'
loop_
_atom_site_label
_atom_site_type_symbol
_atom_site_fract_x
_atom_site_fract_y
_atom_site_fract_z
_atom_site_U_iso_or_equiv
_atom_site_adp_type
_atom_site_occupancy
_atom_site_symmetry_multiplicity
_atom_site_calc_flag
_atom_site_refinement_flags
C1 C 0.6383(2) 0.33221(12) -0.03354(12) 0.0172(4) Uani 1 1 d .
H1 H 0.5357 0.3609 -0.0475 0.021 Uiso 1 1 calc R
C2 C 0.6496(2) 0.25349(13) 0.02487(12) 0.0187(4) Uani 1 1 d .
H2 H 0.5545 0.2274 0.0506 0.022 Uiso 1 1 calc R
C3 C 0.8010(2) 0.21131(12) 0.04678(11) 0.0177(4) Uani 1 1 d .
C4 C 0.9366(2) 0.25105(12) 0.00574(12) 0.0172(3) Uani 1 1 d .
H4 H 1.0407 0.2237 0.0184 0.021 Uiso 1 1 calc R
C5 C 0.9204(2) 0.32950(12) -0.05284(12) 0.0163(3) Uani 1 1 d .
H5 H 1.0133 0.3562 -0.0805 0.020 Uiso 1 1 calc R
C6 C 0.7596(2) 0.45666(12) -0.13031(11) 0.0158(3) Uani 1 1 d .
H6A H 0.8564 0.4625 -0.1690 0.019 Uiso 1 1 calc R
H6B H 0.6629 0.4518 -0.1734 0.019 Uiso 1 1 calc R
C7 C 0.7461(2) 0.54240(12) -0.07019(12) 0.0160(3) Uani 1 1 d .
C8 C 0.8162(2) 0.12737(14) 0.11345(13) 0.0229(4) Uani 1 1 d .
H8A H 0.7662 0.1449 0.1734 0.027 Uiso 1 1 calc R
H8B H 0.9326 0.1144 0.1274 0.027 Uiso 1 1 calc R
C9 C 0.7366(3) 0.03608(15) 0.07529(16) 0.0399(5) Uani 1 1 d .
H9A H 0.6238 0.0497 0.0559 0.060 Uiso 1 1 calc R
H9B H 0.7396 -0.0135 0.1244 0.060 Uiso 1 1 calc R
H9C H 0.7952 0.0131 0.0209 0.060 Uiso 1 1 calc R
C10 C 0.2509(2) 0.26934(13) 0.27110(13) 0.0213(4) Uani 1 1 d .
C11 C 0.2456(2) -0.09396(13) 0.20773(12) 0.0191(4) Uani 1 1 d .
N1 N 0.77319(17) 0.36889(10) -0.07133(9) 0.0142(3) Uani 1 1 d .
N2 N 0.73377(18) 0.60883(11) -0.02349(10) 0.0196(3) Uani 1 1 d .
N3 N 0.19697(17) 0.08531(10) 0.26801(10) 0.0172(3) Uani 1 1 d .
O1 O 0.28496(16) 0.16545(9) 0.12108(9) 0.0234(3) Uani 1 1 d .
O2 O 0.48693(15) 0.14748(9) 0.25111(9) 0.0227(3) Uani 1 1 d .
O3 O 0.10769(14) -0.04895(9) 0.36324(8) 0.0184(3) Uani 1 1 d .
O4 O 0.40217(14) -0.02469(9) 0.35391(8) 0.0182(3) Uani 1 1 d .
F1 F 0.26473(17) 0.26702(8) 0.36441(8) 0.0353(3) Uani 1 1 d .
F2 F 0.34233(15) 0.34121(7) 0.24074(8) 0.0285(3) Uani 1 1 d .
F3 F 0.09850(14) 0.28677(9) 0.24544(10) 0.0378(3) Uani 1 1 d .
F4 F 0.10789(13) -0.08562(8) 0.15646(7) 0.0267(3) Uani 1 1 d .
F5 F 0.26342(15) -0.18550(8) 0.23325(8) 0.0300(3) Uani 1 1 d .
F6 F 0.36808(13) -0.06954(8) 0.15412(7) 0.0273(3) Uani 1 1 d .
S1 S 0.32015(5) 0.15594(3) 0.22003(3) 0.01495(12) Uani 1 1 d .
S2 S 0.24287(5) -0.01556(3) 0.31180(3) 0.01313(12) Uani 1 1 d .
loop_
_atom_site_aniso_label
_atom_site_aniso_U_11
_atom_site_aniso_U_22
_atom_site_aniso_U_33
_atom_site_aniso_U_23
_atom_site_aniso_U_13
_atom_site_aniso_U_12
C1 0.0125(8) 0.0208(9) 0.0182(8) -0.0025(7) 0.0008(6) -0.0013(6)
C2 0.0169(8) 0.0210(9) 0.0183(8) -0.0005(7) 0.0024(7) -0.0038(7)
C3 0.0217(9) 0.0163(8) 0.0150(8) -0.0036(6) 0.0002(7) -0.0014(7)
C4 0.0156(8) 0.0176(8) 0.0183(8) -0.0027(6) -0.0011(6) 0.0021(6)
C5 0.0131(8) 0.0184(8) 0.0172(8) -0.0035(6) 0.0004(6) -0.0023(6)
C6 0.0157(8) 0.0170(8) 0.0147(8) 0.0011(6) -0.0011(6) -0.0011(6)
C7 0.0127(8) 0.0181(9) 0.0168(8) 0.0056(7) -0.0024(6) -0.0015(6)
C8 0.0259(10) 0.0233(9) 0.0195(9) 0.0045(7) 0.0007(7) 0.0000(7)
C9 0.0646(16) 0.0214(10) 0.0329(11) 0.0087(9) -0.0062(11) -0.0078(10)
C10 0.0261(10) 0.0151(8) 0.0229(9) 0.0026(7) 0.0025(7) 0.0005(7)
C11 0.0225(9) 0.0154(8) 0.0196(8) -0.0016(7) 0.0029(7) -0.0006(7)
N1 0.0139(7) 0.0146(7) 0.0140(6) -0.0021(5) 0.0000(5) -0.0015(5)
N2 0.0184(8) 0.0191(8) 0.0210(7) 0.0010(6) -0.0007(6) -0.0007(6)
N3 0.0146(7) 0.0139(7) 0.0228(7) 0.0021(6) -0.0001(6) 0.0013(5)
O1 0.0279(7) 0.0235(7) 0.0186(6) 0.0024(5) -0.0005(5) 0.0002(5)
O2 0.0151(6) 0.0218(6) 0.0313(7) 0.0094(5) 0.0001(5) -0.0013(5)
O3 0.0165(6) 0.0195(6) 0.0193(6) 0.0029(5) 0.0035(5) -0.0009(5)
O4 0.0159(6) 0.0193(6) 0.0191(6) 0.0039(5) -0.0021(5) 0.0010(5)
F1 0.0631(8) 0.0217(6) 0.0217(6) -0.0015(4) 0.0103(5) -0.0033(5)
F2 0.0423(7) 0.0151(5) 0.0283(6) 0.0048(4) 0.0024(5) -0.0061(4)
F3 0.0274(6) 0.0248(6) 0.0611(8) -0.0018(6) 0.0021(6) 0.0118(5)
F4 0.0281(6) 0.0291(6) 0.0225(5) -0.0045(4) -0.0058(4) -0.0048(5)
F5 0.0422(7) 0.0142(5) 0.0337(6) -0.0027(4) 0.0040(5) 0.0030(5)
F6 0.0285(6) 0.0311(6) 0.0229(5) -0.0038(4) 0.0102(4) -0.0006(5)
S1 0.0140(2) 0.0134(2) 0.0174(2) 0.00232(14) 0.00039(15) 0.00096(14)
S2 0.0129(2) 0.0126(2) 0.0138(2) 0.00050(14) 0.00039(15) 0.00048(14)
loop_
_atom_type_symbol
_atom_type_description
_atom_type_scat_dispersion_real
_atom_type_scat_dispersion_imag
_atom_type_scat_source
C C 0.0181 0.0091 'International Tables Vol C Tables 4.2.6.8 and 6.1.1.4'
H H 0.0000 0.0000 'International Tables Vol C Tables 4.2.6.8 and 6.1.1.4'
N N 0.0311 0.0180 'International Tables Vol C Tables 4.2.6.8 and 6.1.1.4'
O O 0.0492 0.0322 'International Tables Vol C Tables 4.2.6.8 and 6.1.1.4'
F F 0.0727 0.0534 'International Tables Vol C Tables 4.2.6.8 and 6.1.1.4'
S S 0.3331 0.5567 'International Tables Vol C Tables 4.2.6.8 and 6.1.1.4'
loop_
_geom_angle_atom_site_label_1
_geom_angle_atom_site_label_2
_geom_angle_atom_site_label_3
_geom_angle
N1 C1 C2 120.03(16)
N1 C1 H1 120.0
C2 C1 H1 120.0
C1 C2 C3 120.37(16)
C1 C2 H2 119.8
C3 C2 H2 119.8
C4 C3 C2 117.64(16)
C4 C3 C8 121.36(16)
C2 C3 C8 120.99(16)
C5 C4 C3 120.31(16)
C5 C4 H4 119.8
C3 C4 H4 119.8
N1 C5 C4 120.39(16)
N1 C5 H5 119.8
C4 C5 H5 119.8
C7 C6 N1 110.05(13)
C7 C6 H6A 109.7
N1 C6 H6A 109.7
C7 C6 H6B 109.7
N1 C6 H6B 109.7
H6A C6 H6B 108.2
N2 C7 C6 179.24(18)
C3 C8 C9 113.40(15)
C3 C8 H8A 108.9
C9 C8 H8A 108.9
C3 C8 H8B 108.9
C9 C8 H8B 108.9
H8A C8 H8B 107.7
C8 C9 H9A 109.5
C8 C9 H9B 109.5
H9A C9 H9B 109.5
C8 C9 H9C 109.5
H9A C9 H9C 109.5
H9B C9 H9C 109.5
F3 C10 F1 109.00(16)
F3 C10 F2 108.61(15)
F1 C10 F2 108.26(15)
F3 C10 S1 110.88(13)
F1 C10 S1 110.99(12)
F2 C10 S1 109.03(12)
F5 C11 F4 108.41(14)
F5 C11 F6 108.73(14)
F4 C11 F6 108.41(14)
F5 C11 S2 110.59(12)
F4 C11 S2 110.63(12)
F6 C11 S2 110.00(12)
C5 N1 C1 121.24(15)
C5 N1 C6 119.48(14)
C1 N1 C6 119.21(14)
S2 N3 S1 124.88(9)
O1 S1 O2 117.83(8)
O1 S1 N3 111.70(8)
O2 S1 N3 116.16(8)
O1 S1 C10 104.76(8)
O2 S1 C10 104.97(8)
N3 S1 C10 98.42(8)
O4 S2 O3 118.65(7)
O4 S2 N3 116.66(7)
O3 S2 N3 107.99(8)
O4 S2 C11 104.19(8)
O3 S2 C11 104.60(8)
N3 S2 C11 102.66(8)
loop_
_geom_bond_atom_site_label_1
_geom_bond_atom_site_label_2
_geom_bond_distance
C1 N1 1.354(2)
C1 C2 1.373(3)
C1 H1 0.9500
C2 C3 1.404(3)
C2 H2 0.9500
C3 C4 1.395(3)
C3 C8 1.504(2)
C4 C5 1.374(2)
C4 H4 0.9500
C5 N1 1.349(2)
C5 H5 0.9500
C6 C7 1.472(2)
C6 N1 1.480(2)
C6 H6A 0.9900
C6 H6B 0.9900
C7 N2 1.143(2)
C8 C9 1.518(3)
C8 H8A 0.9900
C8 H8B 0.9900
C9 H9A 0.9800
C9 H9B 0.9800
C9 H9C 0.9800
C10 F3 1.319(2)
C10 F1 1.327(2)
C10 F2 1.332(2)
C10 S1 1.8334(19)
C11 F5 1.328(2)
C11 F4 1.332(2)
C11 F6 1.332(2)
C11 S2 1.8366(18)
N3 S2 1.5725(14)
N3 S1 1.5849(15)
O1 S1 1.4307(14)
O2 S1 1.4346(14)
O3 S2 1.4337(13)
O4 S2 1.4295(13)
