#------------------------------------------------------------------------------
#$Date: 2016-02-18 17:37:37 +0200 (Thu, 18 Feb 2016) $
#$Revision: 176729 $
#$URL: svn://www.crystallography.net/cod/cif/1/50/20/1502074.cif $
#------------------------------------------------------------------------------
#
# This file is available in the Crystallography Open Database (COD),
# http://www.crystallography.net/
#
# All data on this site have been placed in the public domain by the
# contributors.
#
data_1502074
loop_
_publ_author_name
'Kramer, S\/oren'
'Friis, Stig D.'
'Xin, Zhuo'
'Odabachian, Yann'
'Skrydstrup, Troels'
_publ_section_title
;
 Metal-free halonium mediated acetate shifts of ynamides to access \a-halo
 acrylamides/acrylimides.
;
_journal_issue                   7
_journal_name_full               'Organic letters'
_journal_page_first              1750
_journal_page_last               1753
_journal_paper_doi               10.1021/ol200269h
_journal_volume                  13
_journal_year                    2011
_chemical_formula_sum            'C27 H23 Cl N2 O5 S'
_chemical_formula_weight         522.98
_chemical_name_systematic
; 
 ? 
;
_space_group_IT_number           14
_symmetry_cell_setting           monoclinic
_symmetry_space_group_name_Hall  '-P 2yn'
_symmetry_space_group_name_H-M   'P 1 21/n 1'
_atom_sites_solution_hydrogens   geom
_atom_sites_solution_primary     direct
_atom_sites_solution_secondary   difmap
_audit_creation_method
;
CrysAlisPro, Oxford Diffraction Ltd.,
Version 1.171.34.39 (release 18-08-2010 CrysAlis171 .NET)
(compiled Aug 18 2010,17:42:00)
;
_cell_angle_alpha                90.00
_cell_angle_beta                 97.0594(15)
_cell_angle_gamma                90.00
_cell_formula_units_Z            4
_cell_length_a                   12.6694(2)
_cell_length_b                   9.8120(3)
_cell_length_c                   19.7705(3)
_cell_measurement_reflns_used    5577
_cell_measurement_temperature    100(2)
_cell_measurement_theta_max      29.2276
_cell_measurement_theta_min      2.3161
_cell_volume                     2439.08(9)
_computing_cell_refinement
;
CrysAlisPro, Oxford Diffraction Ltd.,
Version 1.171.34.39 (release 18-08-2010 CrysAlis171 .NET)
(compiled Aug 18 2010,17:42:00)
;
_computing_data_collection
;
CrysAlisPro, Oxford Diffraction Ltd.,
Version 1.171.34.39 (release 18-08-2010 CrysAlis171 .NET)
(compiled Aug 18 2010,17:42:00)
;
_computing_data_reduction
;
CrysAlisPro, Oxford Diffraction Ltd.,
Version 1.171.34.39 (release 18-08-2010 CrysAlis171 .NET)
(compiled Aug 18 2010,17:42:00)
;
_computing_structure_refinement  'SHELXL-97 (Sheldrick, 1997)'
_computing_structure_solution    'SHELXS-97 (Sheldrick, 1990)'
_diffrn_ambient_temperature      100(2)
_diffrn_detector_area_resol_mean 10.3590
_diffrn_measured_fraction_theta_full 0.999
_diffrn_measured_fraction_theta_max 0.889
_diffrn_measurement_device_type  'SuperNova, Single source at offset), Atlas'
_diffrn_measurement_method       '\w scans'
_diffrn_radiation_monochromator  mirror
_diffrn_radiation_source         'SuperNova (Mo) X-ray Source'
_diffrn_radiation_type           MoK\a
_diffrn_radiation_wavelength     0.71073
_diffrn_reflns_av_R_equivalents  0.0223
_diffrn_reflns_av_sigmaI/netI    0.0757
_diffrn_reflns_limit_h_max       16
_diffrn_reflns_limit_h_min       -16
_diffrn_reflns_limit_k_max       12
_diffrn_reflns_limit_k_min       -11
_diffrn_reflns_limit_l_max       27
_diffrn_reflns_limit_l_min       -16
_diffrn_reflns_number            12347
_diffrn_reflns_theta_full        25.00
_diffrn_reflns_theta_max         29.2276
_diffrn_reflns_theta_min         2.3161
_exptl_absorpt_coefficient_mu    0.285
_exptl_absorpt_correction_T_max  1.00000
_exptl_absorpt_correction_T_min  0.80881
_exptl_absorpt_correction_type   multi-scan
_exptl_absorpt_process_details
;
CrysAlisPro, Oxford Diffraction Ltd.,
Version 1.171.34.39 (release 18-08-2010 CrysAlis171 .NET)
(compiled Aug 18 2010,17:42:00)
Empirical absorption correction using spherical harmonics,
 implemented in SCALE3 ABSPACK scaling algorithm.
;
_exptl_crystal_colour            colourless
_exptl_crystal_density_diffrn    1.424
_exptl_crystal_density_method    'not measured'
_exptl_crystal_description       block
_exptl_crystal_F_000             1088
_exptl_crystal_size_max          0.21
_exptl_crystal_size_mid          0.20
_exptl_crystal_size_min          0.18
_refine_diff_density_max         0.377
_refine_diff_density_min         -0.577
_refine_diff_density_rms         0.056
_refine_ls_extinction_method     none
_refine_ls_goodness_of_fit_ref   1.139
_refine_ls_hydrogen_treatment    constr
_refine_ls_matrix_type           full
_refine_ls_number_parameters     325
_refine_ls_number_reflns         5975
_refine_ls_number_restraints     0
_refine_ls_restrained_S_all      1.139
_refine_ls_R_factor_all          0.0518
_refine_ls_R_factor_gt           0.0413
_refine_ls_shift/su_max          0.000
_refine_ls_shift/su_mean         0.000
_refine_ls_structure_factor_coef Fsqd
_refine_ls_weighting_details
'calc w=1/[\s^2^(Fo^2^)+(0.1000P)^2^+0.0000P] where P=(Fo^2^+2Fc^2^)/3'
_refine_ls_weighting_scheme      calc
_refine_ls_wR_factor_gt          0.1403
_refine_ls_wR_factor_ref         0.1539
_reflns_number_gt                5013
_reflns_number_total             5975
_reflns_threshold_expression     >2sigma(I)
_cod_data_source_file            ol200269h_si_004.cif
_cod_data_source_block           shelxl
_cod_original_cell_volume        2439.09(9)
_cod_database_code               1502074
loop_
_symmetry_equiv_pos_as_xyz
'x, y, z'
'-x+1/2, y+1/2, -z+1/2'
'-x, -y, -z'
'x-1/2, -y-1/2, z-1/2'
loop_
_atom_site_label
_atom_site_type_symbol
_atom_site_fract_x
_atom_site_fract_y
_atom_site_fract_z
_atom_site_U_iso_or_equiv
_atom_site_adp_type
_atom_site_occupancy
_atom_site_symmetry_multiplicity
_atom_site_calc_flag
_atom_site_refinement_flags
S S 0.02917(3) 0.21327(4) 0.106478(19) 0.02054(13) Uani 1 1 d .
Cl Cl -0.25433(4) 0.18263(6) 0.28383(2) 0.04436(17) Uani 1 1 d .
N2 N -0.03889(10) 0.12306(13) 0.15993(6) 0.0186(3) Uani 1 1 d .
O4 O 0.08163(9) 0.11144(12) 0.07102(6) 0.0267(3) Uani 1 1 d .
O3 O -0.10397(10) 0.31941(12) 0.20156(6) 0.0316(3) Uani 1 1 d .
O2 O 0.06039(10) -0.15895(12) 0.50111(6) 0.0306(3) Uani 1 1 d .
C20 C -0.00486(12) -0.26032(15) 0.16588(8) 0.0192(3) Uani 1 1 d .
H20 H -0.0699 -0.2876 0.1428 0.023 Uiso 1 1 calc R
N1 N -0.07705(10) -0.25931(14) 0.43027(6) 0.0215(3) Uani 1 1 d .
O1 O -0.21481(9) -0.40128(13) 0.38767(6) 0.0309(3) Uani 1 1 d .
O27 O 0.09131(10) 0.31215(12) 0.14630(6) 0.0308(3) Uani 1 1 d .
C15 C 0.02002(11) -0.12192(15) 0.17121(7) 0.0162(3) Uani 1 1 d .
C25 C -0.18637(13) 0.27866(17) -0.05481(8) 0.0235(3) Uani 1 1 d .
H25 H -0.2156 0.2292 -0.0927 0.028 Uiso 1 1 calc R
C26 C -0.10996(13) 0.21785(16) -0.00818(7) 0.0207(3) Uani 1 1 d .
H26 H -0.0884 0.1286 -0.0144 0.025 Uiso 1 1 calc R
C13 C -0.09490(13) 0.19688(16) 0.20496(8) 0.0224(3) Uani 1 1 d .
C6 C -0.13010(12) -0.41748(17) 0.50515(8) 0.0223(3) Uani 1 1 d .
C9 C -0.06052(13) -0.19003(16) 0.36713(8) 0.0213(3) Uani 1 1 d .
H9A H -0.0844 -0.2491 0.3290 0.026 Uiso 1 1 calc R
H9B H 0.0150 -0.1743 0.3669 0.026 Uiso 1 1 calc R
C24 C -0.21994(13) 0.41016(19) -0.04646(8) 0.0249(4) Uani 1 1 d .
C16 C 0.11859(12) -0.08350(16) 0.20456(8) 0.0201(3) Uani 1 1 d .
H16 H 0.1369 0.0083 0.2076 0.024 Uiso 1 1 calc R
C21 C -0.06638(13) 0.29265(15) 0.04776(8) 0.0202(3) Uani 1 1 d .
C19 C 0.06620(13) -0.35729(16) 0.19453(8) 0.0231(3) Uani 1 1 d .
H19 H 0.0488 -0.4493 0.1909 0.028 Uiso 1 1 calc R
C17 C 0.18998(13) -0.18077(17) 0.23337(8) 0.0228(3) Uani 1 1 d .
H17 H 0.2556 -0.1541 0.2558 0.027 Uiso 1 1 calc R
C14 C -0.06340(12) -0.02066(14) 0.14152(7) 0.0173(3) Uani 1 1 d .
H14A H -0.0718 -0.0288 0.0923 0.021 Uiso 1 1 calc R
H14B H -0.1308 -0.0446 0.1569 0.021 Uiso 1 1 calc R
C8 C -0.01151(13) -0.24080(17) 0.49198(8) 0.0221(3) Uani 1 1 d .
C11 C -0.08547(13) 0.01859(16) 0.29656(7) 0.0218(3) Uani 1 1 d .
H11 H -0.0213 -0.0085 0.2825 0.026 Uiso 1 1 calc R
C18 C 0.16333(14) -0.31753(17) 0.22865(8) 0.0243(4) Uani 1 1 d .
H18 H 0.2107 -0.3828 0.2484 0.029 Uiso 1 1 calc R
C5 C -0.04762(13) -0.34175(16) 0.54006(8) 0.0225(3) Uani 1 1 d .
C12 C -0.13721(13) 0.11702(17) 0.26082(8) 0.0234(3) Uani 1 1 d .
C10 C -0.11871(13) -0.05446(17) 0.35730(8) 0.0237(3) Uani 1 1 d .
H10A H -0.1949 -0.0702 0.3505 0.028 Uiso 1 1 calc R
H10B H -0.1023 0.0013 0.3977 0.028 Uiso 1 1 calc R
C7 C -0.14988(12) -0.36403(17) 0.43434(8) 0.0220(3) Uani 1 1 d .
C4 C -0.01126(15) -0.36732(19) 0.60766(8) 0.0292(4) Uani 1 1 d .
H4 H 0.0436 -0.3165 0.6309 0.035 Uiso 1 1 calc R
C27 C -0.30308(15) 0.4742(2) -0.09799(9) 0.0347(4) Uani 1 1 d .
H27A H -0.3247 0.4098 -0.1336 0.052 Uiso 1 1 calc R
H27B H -0.2739 0.5535 -0.1172 0.052 Uiso 1 1 calc R
H27C H -0.3635 0.5000 -0.0760 0.052 Uiso 1 1 calc R
C2 C -0.14262(15) -0.54777(19) 0.60462(9) 0.0331(4) Uani 1 1 d .
H2 H -0.1741 -0.6171 0.6272 0.040 Uiso 1 1 calc R
C1 C -0.17872(14) -0.52144(18) 0.53650(9) 0.0285(4) Uani 1 1 d .
H1 H -0.2335 -0.5721 0.5131 0.034 Uiso 1 1 calc R
C3 C -0.06023(16) -0.47218(19) 0.63944(9) 0.0332(4) Uani 1 1 d .
H3 H -0.0375 -0.4922 0.6849 0.040 Uiso 1 1 calc R
C23 C -0.17564(17) 0.48304(19) 0.01031(9) 0.0373(5) Uani 1 1 d .
H23 H -0.1976 0.5721 0.0165 0.045 Uiso 1 1 calc R
C22 C -0.09916(17) 0.42502(18) 0.05784(9) 0.0359(5) Uani 1 1 d .
H22 H -0.0703 0.4742 0.0959 0.043 Uiso 1 1 calc R
loop_
_atom_site_aniso_label
_atom_site_aniso_U_11
_atom_site_aniso_U_22
_atom_site_aniso_U_33
_atom_site_aniso_U_23
_atom_site_aniso_U_13
_atom_site_aniso_U_12
S 0.0169(2) 0.0162(2) 0.0273(2) 0.00266(14) -0.00194(16) 0.00133(14)
Cl 0.0373(3) 0.0680(4) 0.0291(3) 0.0054(2) 0.0095(2) 0.0321(2)
N2 0.0185(7) 0.0142(6) 0.0223(6) -0.0004(5) -0.0010(5) 0.0041(5)
O4 0.0211(6) 0.0224(6) 0.0380(7) 0.0056(5) 0.0092(5) 0.0054(5)
O3 0.0441(8) 0.0185(6) 0.0308(6) -0.0035(5) -0.0007(6) 0.0102(5)
O2 0.0362(7) 0.0317(7) 0.0231(6) -0.0028(5) 0.0003(5) -0.0132(6)
C20 0.0181(7) 0.0186(7) 0.0208(7) -0.0011(6) 0.0016(6) -0.0012(6)
N1 0.0200(7) 0.0268(7) 0.0175(6) 0.0011(5) 0.0018(5) -0.0039(6)
O1 0.0212(6) 0.0382(7) 0.0318(6) 0.0035(5) -0.0025(5) -0.0087(5)
O27 0.0281(7) 0.0210(6) 0.0393(7) 0.0049(5) -0.0115(5) -0.0059(5)
C15 0.0162(7) 0.0163(7) 0.0163(7) -0.0016(5) 0.0024(5) 0.0019(6)
C25 0.0265(9) 0.0289(9) 0.0152(7) 0.0016(6) 0.0031(6) -0.0035(7)
C26 0.0243(8) 0.0210(8) 0.0174(7) 0.0003(6) 0.0048(6) 0.0011(6)
C13 0.0225(8) 0.0206(8) 0.0220(7) -0.0026(6) -0.0055(6) 0.0071(6)
C6 0.0182(8) 0.0256(8) 0.0244(8) 0.0010(6) 0.0082(6) 0.0018(6)
C9 0.0215(8) 0.0249(8) 0.0179(7) -0.0008(6) 0.0034(6) -0.0030(6)
C24 0.0218(8) 0.0351(9) 0.0183(7) 0.0053(6) 0.0046(6) 0.0078(7)
C16 0.0193(8) 0.0173(7) 0.0230(7) -0.0004(6) -0.0006(6) 0.0002(6)
C21 0.0213(8) 0.0166(7) 0.0224(8) 0.0008(6) 0.0014(6) 0.0023(6)
C19 0.0312(9) 0.0151(7) 0.0233(8) 0.0008(6) 0.0045(6) 0.0022(6)
C17 0.0186(8) 0.0276(8) 0.0208(7) -0.0011(6) -0.0032(6) 0.0045(7)
C14 0.0160(7) 0.0149(7) 0.0204(7) -0.0018(5) 0.0000(5) 0.0006(6)
C8 0.0230(8) 0.0247(8) 0.0188(7) -0.0029(6) 0.0027(6) -0.0017(7)
C11 0.0192(8) 0.0248(8) 0.0216(7) -0.0026(6) 0.0031(6) 0.0002(6)
C18 0.0289(9) 0.0229(8) 0.0211(7) 0.0037(6) 0.0025(6) 0.0116(7)
C5 0.0247(8) 0.0241(8) 0.0196(7) 0.0004(6) 0.0063(6) 0.0026(6)
C12 0.0208(8) 0.0269(9) 0.0220(7) -0.0063(6) 0.0007(6) 0.0062(7)
C10 0.0228(8) 0.0270(9) 0.0220(7) -0.0016(6) 0.0049(6) 0.0002(7)
C7 0.0165(8) 0.0242(8) 0.0256(8) 0.0011(6) 0.0039(6) -0.0022(6)
C4 0.0341(10) 0.0301(9) 0.0235(8) -0.0008(7) 0.0037(7) 0.0023(8)
C27 0.0309(10) 0.0516(12) 0.0217(8) 0.0064(8) 0.0031(7) 0.0177(9)
C2 0.0360(10) 0.0292(9) 0.0373(10) 0.0103(8) 0.0174(8) 0.0055(8)
C1 0.0227(9) 0.0265(9) 0.0376(9) 0.0047(7) 0.0094(7) 0.0016(7)
C3 0.0408(11) 0.0341(10) 0.0259(8) 0.0067(7) 0.0093(7) 0.0062(8)
C23 0.0529(13) 0.0275(10) 0.0287(9) -0.0031(7) -0.0061(8) 0.0209(9)
C22 0.0489(12) 0.0207(8) 0.0332(9) -0.0071(7) -0.0145(8) 0.0111(8)
loop_
_atom_type_symbol
_atom_type_description
_atom_type_scat_dispersion_real
_atom_type_scat_dispersion_imag
_atom_type_scat_source
C C 0.0033 0.0016 'International Tables Vol C Tables 4.2.6.8 and 6.1.1.4'
H H 0.0000 0.0000 'International Tables Vol C Tables 4.2.6.8 and 6.1.1.4'
N N 0.0061 0.0033 'International Tables Vol C Tables 4.2.6.8 and 6.1.1.4'
O O 0.0106 0.0060 'International Tables Vol C Tables 4.2.6.8 and 6.1.1.4'
S S 0.1246 0.1234 'International Tables Vol C Tables 4.2.6.8 and 6.1.1.4'
Cl Cl 0.1484 0.1585 'International Tables Vol C Tables 4.2.6.8 and 6.1.1.4'
loop_
_geom_angle_atom_site_label_1
_geom_angle_atom_site_label_2
_geom_angle_atom_site_label_3
_geom_angle
O27 S O4 119.22(8)
O27 S N2 107.48(7)
O4 S N2 104.10(6)
O27 S C21 110.68(7)
O4 S C21 108.08(7)
N2 S C21 106.40(7)
C13 N2 C14 122.67(13)
C13 N2 S 117.46(10)
C14 N2 S 116.88(10)
C19 C20 C15 120.61(15)
C7 N1 C8 111.84(13)
C7 N1 C9 124.07(12)
C8 N1 C9 123.56(13)
C16 C15 C20 118.75(14)
C16 C15 C14 123.29(13)
C20 C15 C14 117.94(13)
C24 C25 C26 121.65(15)
C21 C26 C25 118.70(15)
O3 C13 N2 121.95(16)
O3 C13 C12 121.23(15)
N2 C13 C12 116.70(13)
C1 C6 C5 121.43(15)
C1 C6 C7 130.66(15)
C5 C6 C7 107.90(14)
N1 C9 C10 113.48(13)
C25 C24 C23 118.67(15)
C25 C24 C27 120.66(15)
C23 C24 C27 120.68(16)
C17 C16 C15 120.67(15)
C26 C21 C22 120.98(15)
C26 C21 S 117.94(12)
C22 C21 S 121.06(12)
C20 C19 C18 120.05(15)
C18 C17 C16 119.85(15)
N2 C14 C15 114.47(12)
O2 C8 N1 124.77(15)
O2 C8 C5 129.26(14)
N1 C8 C5 105.96(13)
C12 C11 C10 127.33(15)
C17 C18 C19 120.05(15)
C4 C5 C6 121.50(16)
C4 C5 C8 130.42(15)
C6 C5 C8 108.07(13)
C11 C12 C13 125.05(14)
C11 C12 Cl 121.11(13)
C13 C12 Cl 113.19(11)
C11 C10 C9 109.89(13)
O1 C7 N1 124.82(14)
O1 C7 C6 128.98(15)
N1 C7 C6 106.20(13)
C5 C4 C3 117.20(17)
C3 C2 C1 121.12(17)
C6 C1 C2 117.43(17)
C4 C3 C2 121.32(16)
C22 C23 C24 121.02(16)
C21 C22 C23 118.97(16)
loop_
_geom_bond_atom_site_label_1
_geom_bond_atom_site_label_2
_geom_bond_distance
S O27 1.4243(12)
S O4 1.4304(12)
S N2 1.6935(14)
S C21 1.7533(16)
Cl C12 1.7289(16)
N2 C13 1.406(2)
N2 C14 1.4797(19)
O3 C13 1.2089(19)
O2 C8 1.211(2)
C20 C19 1.383(2)
C20 C15 1.395(2)
N1 C7 1.390(2)
N1 C8 1.4008(19)
N1 C9 1.4589(19)
O1 C7 1.2146(19)
C15 C16 1.391(2)
C15 C14 1.515(2)
C25 C24 1.375(2)
C25 C26 1.387(2)
C26 C21 1.384(2)
C13 C12 1.506(2)
C6 C1 1.378(2)
C6 C5 1.394(2)
C6 C7 1.487(2)
C9 C10 1.522(2)
C24 C23 1.390(2)
C24 C27 1.509(2)
C16 C17 1.388(2)
C21 C22 1.385(2)
C19 C18 1.385(2)
C17 C18 1.384(2)
C8 C5 1.483(2)
C11 C12 1.322(2)
C11 C10 1.502(2)
C5 C4 1.382(2)
C4 C3 1.391(3)
C2 C3 1.392(3)
C2 C1 1.392(3)
C23 C22 1.386(2)
