#------------------------------------------------------------------------------
#$Date: 2016-02-18 17:37:37 +0200 (Thu, 18 Feb 2016) $
#$Revision: 176729 $
#$URL: svn://www.crystallography.net/cod/cif/1/50/57/1505710.cif $
#------------------------------------------------------------------------------
#
# This file is available in the Crystallography Open Database (COD),
# http://www.crystallography.net/
#
# All data on this site have been placed in the public domain by the
# contributors.
#
data_1505710
loop_
_publ_author_name
'Ren, X. M.'
'Akutagawa, T.'
'Noro, S.'
'Nishihara, S.'
'Nakamura, T.'
'Yoshida, Y.'
'Inoue, K.'
_publ_section_title
;
 Structural and magnetic investigations for the doping effect of
 nonmagnetic impurity on the spin-Peierls-like transition in a
 quasi-one-dimensional magnet: 1-(4'-nitrobenzyl)pyridinium
 bis(maleonitriledithiolato)nickelate.
;
_journal_issue                   15
_journal_name_full               'The journal of physical chemistry. B'
_journal_page_first              7671
_journal_page_last               7677
_journal_paper_doi               10.1021/jp0556106
_journal_volume                  110
_journal_year                    2006
_chemical_formula_sum            'C20 H11 Au0.11 N6 Ni0.89 O2 S4'
_chemical_formula_weight         568.99
_chemical_name_systematic
; 
 ? 
;
_space_group_IT_number           14
_symmetry_cell_setting           monoclinic
_symmetry_space_group_name_Hall  '-P 2ybc'
_symmetry_space_group_name_H-M   'P 1 21/c 1'
_atom_sites_solution_hydrogens   geom
_atom_sites_solution_primary     direct
_atom_sites_solution_secondary   difmap
_audit_creation_method           SHELXL-97
_cell_angle_alpha                90.00
_cell_angle_beta                 102.93(3)
_cell_angle_gamma                90.00
_cell_formula_units_Z            4
_cell_length_a                   12.188(2)
_cell_length_b                   26.503(5)
_cell_length_c                   7.2150(14)
_cell_measurement_temperature    273(2)
_cell_volume                     2271.5(8)
_computing_structure_refinement  'SHELXL-97 (Sheldrick, 1997)'
_computing_structure_solution    'SHELXS-97 (Sheldrick, 1990)'
_diffrn_ambient_temperature      273(2)
_diffrn_measured_fraction_theta_full 0.997
_diffrn_measured_fraction_theta_max 0.997
_diffrn_radiation_monochromator  graphite
_diffrn_radiation_source         'fine-focus sealed tube'
_diffrn_radiation_type           MoK\a
_diffrn_radiation_wavelength     0.71073
_diffrn_reflns_av_R_equivalents  0.0492
_diffrn_reflns_av_sigmaI/netI    0.0421
_diffrn_reflns_limit_h_max       15
_diffrn_reflns_limit_h_min       -15
_diffrn_reflns_limit_k_max       34
_diffrn_reflns_limit_k_min       -34
_diffrn_reflns_limit_l_max       8
_diffrn_reflns_limit_l_min       -9
_diffrn_reflns_number            22008
_diffrn_reflns_theta_full        27.46
_diffrn_reflns_theta_max         27.46
_diffrn_reflns_theta_min         3.00
_exptl_absorpt_coefficient_mu    1.851
_exptl_crystal_density_diffrn    1.664
_exptl_crystal_density_method    'not measured'
_exptl_crystal_F_000             1146
_refine_diff_density_max         0.557
_refine_diff_density_min         -0.474
_refine_diff_density_rms         0.076
_refine_ls_extinction_method     none
_refine_ls_goodness_of_fit_ref   1.041
_refine_ls_hydrogen_treatment    mixed
_refine_ls_matrix_type           full
_refine_ls_number_parameters     299
_refine_ls_number_reflns         5182
_refine_ls_number_restraints     0
_refine_ls_restrained_S_all      1.041
_refine_ls_R_factor_all          0.0758
_refine_ls_R_factor_gt           0.0409
_refine_ls_shift/su_max          0.001
_refine_ls_shift/su_mean         0.000
_refine_ls_structure_factor_coef Fsqd
_refine_ls_weighting_details
'calc w=1/[\s^2^(Fo^2^)+(0.0251P)^2^+2.5135P] where P=(Fo^2^+2Fc^2^)/3'
_refine_ls_weighting_scheme      calc
_refine_ls_wR_factor_gt          0.0735
_refine_ls_wR_factor_ref         0.0946
_reflns_number_gt                3460
_reflns_number_total             5182
_reflns_threshold_expression     >2sigma(I)
_cod_data_source_file            jp0556106si20060207_063811.cif
_cod_data_source_block           x=0.11_at_273_K
_cod_depositor_comments
;
The following automatic conversions were performed:

'_symmetry_cell_setting' value 'Monoclinic' changed to 'monoclinic'
according to /home/saulius/struct/CIF-dictionaries/cif_core.dic
dictionary named 'cif_core.dic' version 2.4.1 from 2010-06-29.

Automatic conversion script
Id: cif_fix_values 1715 2011-07-08 13:25:40Z adriana 
;
_cod_original_sg_symbol_H-M      P2(1)/c
_cod_database_code               1505710
loop_
_symmetry_equiv_pos_as_xyz
'x, y, z'
'-x, y+1/2, -z+1/2'
'-x, -y, -z'
'x, -y-1/2, z-1/2'
loop_
_atom_site_label
_atom_site_type_symbol
_atom_site_fract_x
_atom_site_fract_y
_atom_site_fract_z
_atom_site_U_iso_or_equiv
_atom_site_adp_type
_atom_site_occupancy
_atom_site_symmetry_multiplicity
_atom_site_calc_flag
_atom_site_refinement_flags
Ni1 Ni -0.23182(3) 0.226756(14) -0.44897(5) 0.04229(15) Uani 0.8938(13) 1 d P
Au1 Au -0.23182(3) 0.226756(14) -0.44897(5) 0.04229(15) Uani 0.1062(13) 1 d P
S1 S -0.34219(8) 0.16354(4) -0.54631(14) 0.0500(3) Uani 1 1 d .
S2 S -0.08970(8) 0.17829(4) -0.34310(14) 0.0534(3) Uani 1 1 d .
S3 S -0.36993(8) 0.27811(3) -0.55528(14) 0.0487(2) Uani 1 1 d .
S4 S -0.11566(8) 0.28886(4) -0.36327(14) 0.0510(3) Uani 1 1 d .
O1 O 0.1677(4) 0.16482(12) -0.0127(6) 0.1118(14) Uani 1 1 d .
O2 O 0.3465(4) 0.16222(13) 0.0604(6) 0.1082(14) Uani 1 1 d .
N1 N -0.3335(3) 0.02565(14) -0.6146(6) 0.0750(11) Uani 1 1 d .
N2 N 0.0077(3) 0.04889(15) -0.3437(6) 0.0798(12) Uani 1 1 d .
N3 N -0.4370(3) 0.41294(14) -0.6318(6) 0.0742(11) Uani 1 1 d .
N4 N -0.0944(3) 0.42658(13) -0.3823(6) 0.0715(11) Uani 1 1 d .
N5 N 0.2774(3) 0.42637(11) -0.1107(4) 0.0484(7) Uani 1 1 d .
N6 N 0.2590(4) 0.18516(14) 0.0252(5) 0.0665(10) Uani 1 1 d .
C1 C -0.2965(3) 0.06405(16) -0.5600(6) 0.0553(10) Uani 1 1 d .
C2 C -0.2519(3) 0.11264(14) -0.4984(5) 0.0485(9) Uani 1 1 d .
C3 C -0.1412(3) 0.11931(14) -0.4103(5) 0.0476(9) Uani 1 1 d .
C4 C -0.0610(4) 0.07903(16) -0.3743(6) 0.0578(10) Uani 1 1 d .
C5 C -0.3784(3) 0.38001(15) -0.5796(6) 0.0521(9) Uani 1 1 d .
C6 C -0.3086(3) 0.33656(13) -0.5183(5) 0.0433(8) Uani 1 1 d .
C7 C -0.1965(3) 0.34110(13) -0.4358(5) 0.0445(8) Uani 1 1 d .
C8 C -0.1406(3) 0.38921(15) -0.4060(5) 0.0505(9) Uani 1 1 d .
C9 C 0.3754(4) 0.43437(15) -0.1595(7) 0.0650(12) Uani 1 1 d .
H9A H 0.4421 0.4234 -0.0801 0.078 Uiso 1 1 calc R
C10 C 0.3780(5) 0.45849(17) -0.3251(8) 0.0805(15) Uani 1 1 d .
H10A H 0.4464 0.4643 -0.3585 0.097 Uiso 1 1 calc R
C11 C 0.2789(5) 0.47418(16) -0.4428(7) 0.0779(15) Uani 1 1 d .
H11A H 0.2794 0.4903 -0.5572 0.093 Uiso 1 1 calc R
C12 C 0.1799(5) 0.46582(16) -0.3895(7) 0.0767(14) Uani 1 1 d .
H12A H 0.1121 0.4763 -0.4670 0.092 Uiso 1 1 calc R
C13 C 0.1809(3) 0.44192(14) -0.2215(6) 0.0609(11) Uani 1 1 d .
H13A H 0.1136 0.4365 -0.1842 0.073 Uiso 1 1 calc R
C14 C 0.2764(3) 0.40008(14) 0.0713(5) 0.0544(10) Uani 1 1 d .
H14A H 0.2118 0.4113 0.1179 0.065 Uiso 1 1 calc R
H14B H 0.3437 0.4091 0.1653 0.065 Uiso 1 1 calc R
C15 C 0.2716(3) 0.34377(14) 0.0484(5) 0.0445(8) Uani 1 1 d .
C16 C 0.3688(3) 0.31560(15) 0.0927(6) 0.0554(10) Uani 1 1 d .
H16A H 0.4378 0.3318 0.1303 0.067 Uiso 1 1 calc R
C17 C 0.3653(3) 0.26341(16) 0.0821(6) 0.0586(10) Uani 1 1 d .
H17A H 0.4312 0.2445 0.1111 0.070 Uiso 1 1 calc R
C18 C 0.2631(3) 0.24042(13) 0.0283(5) 0.0462(9) Uani 1 1 d .
C19 C 0.1652(3) 0.26705(16) -0.0197(6) 0.0615(11) Uani 1 1 d .
H19A H 0.0966 0.2505 -0.0581 0.074 Uiso 1 1 calc R
C20 C 0.1700(3) 0.31899(15) -0.0101(6) 0.0588(10) Uani 1 1 d .
H20A H 0.1039 0.3376 -0.0436 0.071 Uiso 1 1 calc R
loop_
_atom_site_aniso_label
_atom_site_aniso_U_11
_atom_site_aniso_U_22
_atom_site_aniso_U_33
_atom_site_aniso_U_23
_atom_site_aniso_U_13
_atom_site_aniso_U_12
Ni1 0.0370(2) 0.0457(2) 0.0426(2) 0.00417(17) 0.00573(15) -0.00062(16)
Au1 0.0370(2) 0.0457(2) 0.0426(2) 0.00417(17) 0.00573(15) -0.00062(16)
S1 0.0407(5) 0.0522(5) 0.0557(6) 0.0047(5) 0.0079(4) -0.0002(4)
S2 0.0405(5) 0.0604(6) 0.0559(6) 0.0028(5) 0.0039(4) 0.0016(4)
S3 0.0381(5) 0.0497(5) 0.0548(6) 0.0032(4) 0.0027(4) -0.0030(4)
S4 0.0393(5) 0.0556(6) 0.0538(6) 0.0030(5) 0.0009(4) -0.0021(4)
O1 0.109(3) 0.056(2) 0.155(4) 0.008(2) -0.005(3) -0.026(2)
O2 0.114(3) 0.058(2) 0.149(4) 0.016(2) 0.022(3) 0.026(2)
N1 0.075(3) 0.059(2) 0.086(3) 0.002(2) 0.008(2) -0.006(2)
N2 0.077(3) 0.070(2) 0.086(3) 0.000(2) 0.004(2) 0.022(2)
N3 0.057(2) 0.061(2) 0.099(3) 0.000(2) 0.004(2) 0.0102(19)
N4 0.067(3) 0.052(2) 0.090(3) -0.003(2) 0.005(2) -0.0130(19)
N5 0.0402(18) 0.0432(16) 0.0592(19) -0.0044(15) 0.0054(15) -0.0015(13)
N6 0.086(3) 0.053(2) 0.057(2) 0.0066(18) 0.008(2) -0.001(2)
C1 0.052(2) 0.056(2) 0.057(2) 0.007(2) 0.0096(19) 0.0032(19)
C2 0.051(2) 0.048(2) 0.047(2) 0.0041(17) 0.0132(18) -0.0009(17)
C3 0.049(2) 0.048(2) 0.047(2) 0.0093(17) 0.0143(17) 0.0058(17)
C4 0.054(3) 0.060(3) 0.059(2) 0.003(2) 0.010(2) 0.006(2)
C5 0.042(2) 0.054(2) 0.059(2) -0.006(2) 0.0082(18) -0.0034(18)
C6 0.040(2) 0.047(2) 0.0420(19) 0.0000(16) 0.0085(15) 0.0009(16)
C7 0.046(2) 0.047(2) 0.0389(18) -0.0004(16) 0.0078(16) -0.0031(16)
C8 0.044(2) 0.053(2) 0.053(2) -0.0015(19) 0.0086(17) 0.0008(18)
C9 0.049(3) 0.056(2) 0.093(3) 0.005(2) 0.020(2) 0.0049(19)
C10 0.092(4) 0.057(3) 0.107(4) 0.009(3) 0.052(3) 0.000(3)
C11 0.123(5) 0.048(2) 0.064(3) 0.004(2) 0.024(3) -0.005(3)
C12 0.080(4) 0.059(3) 0.078(3) 0.014(2) -0.010(3) -0.009(2)
C13 0.047(2) 0.051(2) 0.079(3) 0.002(2) 0.002(2) -0.0014(18)
C14 0.056(3) 0.053(2) 0.054(2) -0.0001(19) 0.0114(19) 0.0021(18)
C15 0.043(2) 0.050(2) 0.0402(18) 0.0005(17) 0.0078(15) -0.0002(16)
C16 0.036(2) 0.055(2) 0.072(3) 0.001(2) 0.0055(18) -0.0024(17)
C17 0.043(2) 0.067(3) 0.063(3) 0.004(2) 0.0056(19) 0.0104(19)
C18 0.055(2) 0.047(2) 0.0364(18) 0.0056(16) 0.0081(17) 0.0003(17)
C19 0.038(2) 0.064(3) 0.078(3) 0.005(2) 0.0031(19) -0.0066(19)
C20 0.036(2) 0.056(2) 0.081(3) 0.010(2) 0.0075(19) 0.0017(18)
loop_
_atom_type_symbol
_atom_type_description
_atom_type_scat_dispersion_real
_atom_type_scat_dispersion_imag
_atom_type_scat_source
C C 0.0033 0.0016 'International Tables Vol C Tables 4.2.6.8 and 6.1.1.4'
H H 0.0000 0.0000 'International Tables Vol C Tables 4.2.6.8 and 6.1.1.4'
N N 0.0061 0.0033 'International Tables Vol C Tables 4.2.6.8 and 6.1.1.4'
O O 0.0106 0.0060 'International Tables Vol C Tables 4.2.6.8 and 6.1.1.4'
S S 0.1246 0.1234 'International Tables Vol C Tables 4.2.6.8 and 6.1.1.4'
Ni Ni 0.3393 1.1124 'International Tables Vol C Tables 4.2.6.8 and 6.1.1.4'
Au Au -2.0133 8.8022 'International Tables Vol C Tables 4.2.6.8 and 6.1.1.4'
loop_
_geom_angle_atom_site_label_1
_geom_angle_atom_site_label_2
_geom_angle_atom_site_label_3
_geom_angle
S2 Ni1 S1 92.61(4)
S2 Ni1 S3 177.60(4)
S1 Ni1 S3 89.67(4)
S2 Ni1 S4 85.96(4)
S1 Ni1 S4 176.70(4)
S3 Ni1 S4 91.72(4)
C2 S1 Ni1 102.58(14)
C3 S2 Ni1 103.25(13)
C6 S3 Ni1 103.60(13)
C7 S4 Ni1 103.43(13)
C13 N5 C9 121.0(4)
C13 N5 C14 119.6(3)
C9 N5 C14 119.4(3)
O2 N6 O1 123.3(4)
O2 N6 C18 118.4(4)
O1 N6 C18 118.3(4)
N1 C1 C2 178.0(5)
C3 C2 C1 121.8(4)
C3 C2 S1 120.7(3)
C1 C2 S1 117.4(3)
C2 C3 C4 123.4(4)
C2 C3 S2 120.7(3)
C4 C3 S2 115.9(3)
N2 C4 C3 176.1(5)
N3 C5 C6 177.1(4)
C7 C6 C5 121.8(3)
C7 C6 S3 120.4(3)
C5 C6 S3 117.8(3)
C6 C7 C8 122.4(3)
C6 C7 S4 120.8(3)
C8 C7 S4 116.7(3)
N4 C8 C7 178.5(4)
N5 C9 C10 120.3(4)
C9 C10 C11 119.5(5)
C12 C11 C10 119.1(5)
C11 C12 C13 119.5(5)
N5 C13 C12 120.6(4)
N5 C14 C15 112.1(3)
C16 C15 C20 118.6(4)
C16 C15 C14 120.2(3)
C20 C15 C14 121.1(3)
C15 C16 C17 121.0(4)
C18 C17 C16 118.5(4)
C19 C18 C17 122.2(4)
C19 C18 N6 119.3(4)
C17 C18 N6 118.5(4)
C18 C19 C20 118.7(4)
C19 C20 C15 121.0(4)
loop_
_geom_bond_atom_site_label_1
_geom_bond_atom_site_label_2
_geom_bond_distance
Ni1 S2 2.1544(11)
Ni1 S1 2.1650(11)
Ni1 S3 2.1671(11)
Ni1 S4 2.1690(11)
S1 C2 1.726(4)
S2 C3 1.714(4)
S3 C6 1.715(4)
S4 C7 1.712(4)
O1 N6 1.211(5)
O2 N6 1.204(5)
N1 C1 1.147(5)
N2 C4 1.143(5)
N3 C5 1.138(5)
N4 C8 1.133(5)
N5 C13 1.331(5)
N5 C9 1.335(5)
N5 C14 1.489(5)
N6 C18 1.465(5)
C1 C2 1.429(5)
C2 C3 1.368(5)
C3 C4 1.431(5)
C5 C6 1.441(5)
C6 C7 1.368(5)
C7 C8 1.439(5)
C9 C10 1.362(6)
C10 C11 1.376(7)
C11 C12 1.365(7)
C12 C13 1.365(6)
C14 C15 1.501(5)
C15 C16 1.376(5)
C15 C20 1.381(5)
C16 C17 1.386(5)
C17 C18 1.363(5)
C18 C19 1.362(5)
C19 C20 1.379(5)
