#------------------------------------------------------------------------------
#$Date: 2016-02-18 17:37:37 +0200 (Thu, 18 Feb 2016) $
#$Revision: 176729 $
#$URL: svn://www.crystallography.net/cod/cif/1/50/57/1505713.cif $
#------------------------------------------------------------------------------
#
# This file is available in the Crystallography Open Database (COD),
# http://www.crystallography.net/
#
# All data on this site have been placed in the public domain by the
# contributors.
#
data_1505713
loop_
_publ_author_name
'Ren, X. M.'
'Akutagawa, T.'
'Noro, S.'
'Nishihara, S.'
'Nakamura, T.'
'Yoshida, Y.'
'Inoue, K.'
_publ_section_title
;
 Structural and magnetic investigations for the doping effect of
 nonmagnetic impurity on the spin-Peierls-like transition in a
 quasi-one-dimensional magnet: 1-(4'-nitrobenzyl)pyridinium
 bis(maleonitriledithiolato)nickelate.
;
_journal_issue                   15
_journal_name_full               'The journal of physical chemistry. B'
_journal_page_first              7671
_journal_page_last               7677
_journal_paper_doi               10.1021/jp0556106
_journal_volume                  110
_journal_year                    2006
_chemical_formula_sum            'C20 H11 Au0.35 N6 Ni0.65 O2 S4'
_chemical_formula_weight         602.39
_chemical_name_systematic
; 
 ? 
;
_space_group_IT_number           14
_symmetry_cell_setting           monoclinic
_symmetry_space_group_name_Hall  '-P 2ybc'
_symmetry_space_group_name_H-M   'P 1 21/c 1'
_atom_sites_solution_hydrogens   geom
_atom_sites_solution_primary     direct
_atom_sites_solution_secondary   difmap
_audit_creation_method           SHELXL-97
_cell_angle_alpha                90.00
_cell_angle_beta                 103.03(3)
_cell_angle_gamma                90.00
_cell_formula_units_Z            4
_cell_length_a                   12.200(2)
_cell_length_b                   26.524(5)
_cell_length_c                   7.2281(14)
_cell_measurement_temperature    273(2)
_cell_volume                     2278.7(8)
_computing_structure_refinement  'SHELXL-97 (Sheldrick, 1997)'
_computing_structure_solution    'SHELXS-97 (Sheldrick, 1990)'
_diffrn_ambient_temperature      273(2)
_diffrn_measured_fraction_theta_full 0.998
_diffrn_measured_fraction_theta_max 0.998
_diffrn_radiation_monochromator  graphite
_diffrn_radiation_source         'fine-focus sealed tube'
_diffrn_radiation_type           MoK\a
_diffrn_radiation_wavelength     0.71073
_diffrn_reflns_av_R_equivalents  0.0457
_diffrn_reflns_av_sigmaI/netI    0.0475
_diffrn_reflns_limit_h_max       15
_diffrn_reflns_limit_h_min       -15
_diffrn_reflns_limit_k_max       34
_diffrn_reflns_limit_k_min       -34
_diffrn_reflns_limit_l_max       9
_diffrn_reflns_limit_l_min       -8
_diffrn_reflns_number            22025
_diffrn_reflns_theta_full        27.48
_diffrn_reflns_theta_max         27.48
_diffrn_reflns_theta_min         2.99
_exptl_absorpt_coefficient_mu    3.199
_exptl_crystal_density_diffrn    1.756
_exptl_crystal_density_method    'not measured'
_exptl_crystal_F_000             1195
_refine_diff_density_max         0.648
_refine_diff_density_min         -0.484
_refine_diff_density_rms         0.085
_refine_ls_extinction_method     none
_refine_ls_goodness_of_fit_ref   1.134
_refine_ls_hydrogen_treatment    mixed
_refine_ls_matrix_type           full
_refine_ls_number_parameters     299
_refine_ls_number_reflns         5219
_refine_ls_number_restraints     0
_refine_ls_restrained_S_all      1.134
_refine_ls_R_factor_all          0.0494
_refine_ls_R_factor_gt           0.0354
_refine_ls_shift/su_max          0.001
_refine_ls_shift/su_mean         0.000
_refine_ls_structure_factor_coef Fsqd
_refine_ls_weighting_details
'calc w=1/[\s^2^(Fo^2^)+(0.0412P)^2^+0.0000P] where P=(Fo^2^+2Fc^2^)/3'
_refine_ls_weighting_scheme      calc
_refine_ls_wR_factor_gt          0.0793
_refine_ls_wR_factor_ref         0.0917
_reflns_number_gt                3863
_reflns_number_total             5219
_reflns_threshold_expression     >2sigma(I)
_cod_data_source_file            jp0556106si20060207_063811.cif
_cod_data_source_block           x=0.35_at_273_K
_cod_depositor_comments
;
The following automatic conversions were performed:

'_symmetry_cell_setting' value 'Monoclinic' changed to 'monoclinic'
according to /home/saulius/struct/CIF-dictionaries/cif_core.dic
dictionary named 'cif_core.dic' version 2.4.1 from 2010-06-29.

Automatic conversion script
Id: cif_fix_values 1715 2011-07-08 13:25:40Z adriana 
;
_cod_original_cell_volume        2278.8(8)
_cod_original_sg_symbol_H-M      P2(1)/c
_cod_database_code               1505713
loop_
_symmetry_equiv_pos_as_xyz
'x, y, z'
'-x, y+1/2, -z+1/2'
'-x, -y, -z'
'x, -y-1/2, z-1/2'
loop_
_atom_site_label
_atom_site_type_symbol
_atom_site_fract_x
_atom_site_fract_y
_atom_site_fract_z
_atom_site_U_iso_or_equiv
_atom_site_adp_type
_atom_site_occupancy
_atom_site_symmetry_multiplicity
_atom_site_calc_flag
_atom_site_refinement_flags
Ni1 Ni -0.23189(2) 0.225818(8) -0.44995(3) 0.03976(10) Uani 0.6521(15) 1 d P
Au1 Au -0.23189(2) 0.225818(8) -0.44995(3) 0.03976(10) Uani 0.3479(15) 1 d P
S1 S -0.34393(8) 0.16157(3) -0.54806(13) 0.0507(3) Uani 1 1 d .
S2 S -0.08773(8) 0.17646(4) -0.34106(14) 0.0548(3) Uani 1 1 d .
S3 S -0.37217(8) 0.27866(3) -0.55576(14) 0.0484(2) Uani 1 1 d .
S4 S -0.11373(8) 0.28921(4) -0.36301(14) 0.0505(3) Uani 1 1 d .
O1 O 0.1681(3) 0.16516(12) -0.0127(6) 0.1114(13) Uani 1 1 d .
O2 O 0.3468(4) 0.16245(12) 0.0590(6) 0.1094(13) Uani 1 1 d .
N1 N -0.3339(3) 0.02488(13) -0.6166(5) 0.0740(10) Uani 1 1 d .
N2 N 0.0077(3) 0.04778(13) -0.3447(6) 0.0805(11) Uani 1 1 d .
N3 N -0.4348(3) 0.41274(12) -0.6283(5) 0.0732(10) Uani 1 1 d .
N4 N -0.0949(3) 0.42656(12) -0.3838(5) 0.0722(10) Uani 1 1 d .
N5 N 0.2766(3) 0.42608(10) -0.1122(4) 0.0474(7) Uani 1 1 d .
N6 N 0.2597(4) 0.18513(13) 0.0250(5) 0.0682(10) Uani 1 1 d .
C1 C -0.2956(3) 0.06294(14) -0.5611(5) 0.0525(9) Uani 1 1 d .
C2 C -0.2523(3) 0.11111(14) -0.4995(5) 0.0476(9) Uani 1 1 d .
C3 C -0.1410(3) 0.11777(13) -0.4107(5) 0.0464(8) Uani 1 1 d .
C4 C -0.0604(4) 0.07728(15) -0.3742(5) 0.0578(10) Uani 1 1 d .
C5 C -0.3784(3) 0.37966(13) -0.5790(5) 0.0520(9) Uani 1 1 d .
C6 C -0.3083(3) 0.33682(12) -0.5189(5) 0.0434(8) Uani 1 1 d .
C7 C -0.1975(3) 0.34089(12) -0.4372(4) 0.0421(8) Uani 1 1 d .
C8 C -0.1408(3) 0.38905(14) -0.4072(5) 0.0493(9) Uani 1 1 d .
C9 C 0.3748(4) 0.43423(13) -0.1600(7) 0.0651(11) Uani 1 1 d .
H9A H 0.4415 0.4236 -0.0798 0.078 Uiso 1 1 calc R
C10 C 0.3775(5) 0.45801(16) -0.3253(8) 0.0822(15) Uani 1 1 d .
H10A H 0.4457 0.4636 -0.3588 0.099 Uiso 1 1 calc R
C11 C 0.2780(5) 0.47375(16) -0.4434(7) 0.0794(15) Uani 1 1 d .
H11A H 0.2783 0.4898 -0.5578 0.095 Uiso 1 1 calc R
C12 C 0.1789(4) 0.46534(15) -0.3891(7) 0.0768(13) Uani 1 1 d .
H12A H 0.1112 0.4760 -0.4660 0.092 Uiso 1 1 calc R
C13 C 0.1800(3) 0.44154(13) -0.2240(6) 0.0608(10) Uani 1 1 d .
H13A H 0.1127 0.4358 -0.1875 0.073 Uiso 1 1 calc R
C14 C 0.2766(3) 0.40026(14) 0.0694(5) 0.0545(10) Uani 1 1 d .
H14A H 0.2122 0.4115 0.1163 0.065 Uiso 1 1 calc R
H14B H 0.3441 0.4095 0.1626 0.065 Uiso 1 1 calc R
C15 C 0.2720(3) 0.34349(13) 0.0479(4) 0.0448(8) Uani 1 1 d .
C16 C 0.3694(3) 0.31536(14) 0.0922(6) 0.0557(9) Uani 1 1 d .
H16A H 0.4384 0.3316 0.1296 0.067 Uiso 1 1 calc R
C17 C 0.3661(3) 0.26366(14) 0.0820(6) 0.0567(10) Uani 1 1 d .
H17A H 0.4319 0.2447 0.1105 0.068 Uiso 1 1 calc R
C18 C 0.2632(3) 0.24093(14) 0.0286(5) 0.0469(9) Uani 1 1 d .
C19 C 0.1642(3) 0.26710(14) -0.0194(6) 0.0607(10) Uani 1 1 d .
H19A H 0.0957 0.2505 -0.0569 0.073 Uiso 1 1 calc R
C20 C 0.1695(3) 0.31910(14) -0.0102(6) 0.0604(10) Uani 1 1 d .
H20A H 0.1037 0.3379 -0.0434 0.072 Uiso 1 1 calc R
loop_
_atom_site_aniso_label
_atom_site_aniso_U_11
_atom_site_aniso_U_22
_atom_site_aniso_U_33
_atom_site_aniso_U_23
_atom_site_aniso_U_13
_atom_site_aniso_U_12
Ni1 0.03840(16) 0.03829(14) 0.04190(16) 0.00374(10) 0.00764(11) -0.00092(10)
Au1 0.03840(16) 0.03829(14) 0.04190(16) 0.00374(10) 0.00764(11) -0.00092(10)
S1 0.0432(5) 0.0519(5) 0.0552(6) 0.0042(4) 0.0076(5) 0.0023(4)
S2 0.0461(6) 0.0587(6) 0.0567(6) 0.0005(4) 0.0057(5) -0.0007(4)
S3 0.0410(5) 0.0450(5) 0.0557(6) 0.0016(4) 0.0038(4) -0.0047(4)
S4 0.0401(5) 0.0521(5) 0.0544(6) 0.0036(4) 0.0004(5) -0.0026(4)
O1 0.101(3) 0.058(2) 0.158(4) 0.009(2) -0.007(3) -0.0217(19)
O2 0.115(3) 0.0554(19) 0.153(4) 0.018(2) 0.020(3) 0.024(2)
N1 0.078(3) 0.052(2) 0.085(3) 0.0016(18) 0.004(2) -0.0067(19)
N2 0.083(3) 0.067(2) 0.086(3) 0.005(2) 0.008(2) 0.029(2)
N3 0.065(2) 0.0468(19) 0.103(3) -0.0023(19) 0.008(2) 0.0053(17)
N4 0.077(3) 0.0495(19) 0.084(3) -0.0032(17) 0.005(2) -0.0133(18)
N5 0.0499(19) 0.0369(14) 0.0557(18) -0.0041(13) 0.0123(16) -0.0020(13)
N6 0.095(3) 0.048(2) 0.058(2) 0.0073(16) 0.010(2) -0.002(2)
C1 0.052(2) 0.051(2) 0.055(2) 0.0071(18) 0.013(2) 0.0019(18)
C2 0.050(2) 0.052(2) 0.0426(19) 0.0052(16) 0.0143(18) 0.0010(16)
C3 0.046(2) 0.052(2) 0.0430(19) 0.0084(16) 0.0131(18) 0.0063(16)
C4 0.062(3) 0.062(2) 0.049(2) 0.0036(19) 0.011(2) 0.003(2)
C5 0.055(2) 0.0431(19) 0.058(2) -0.0037(17) 0.013(2) 0.0004(18)
C6 0.047(2) 0.0405(18) 0.0444(19) -0.0016(15) 0.0136(17) -0.0031(15)
C7 0.043(2) 0.0445(18) 0.0383(18) -0.0009(15) 0.0076(16) -0.0009(15)
C8 0.042(2) 0.053(2) 0.053(2) -0.0030(17) 0.0078(18) -0.0030(17)
C9 0.054(3) 0.056(2) 0.089(3) 0.006(2) 0.023(2) 0.0054(18)
C10 0.094(4) 0.061(3) 0.105(4) 0.010(3) 0.052(4) 0.002(3)
C11 0.127(5) 0.047(2) 0.066(3) 0.003(2) 0.025(3) -0.002(3)
C12 0.084(4) 0.062(3) 0.072(3) 0.012(2) -0.006(3) -0.007(2)
C13 0.049(2) 0.051(2) 0.074(3) 0.006(2) -0.006(2) -0.0023(18)
C14 0.056(3) 0.055(2) 0.051(2) -0.0044(17) 0.008(2) 0.0020(17)
C15 0.044(2) 0.0509(19) 0.0392(18) 0.0018(16) 0.0095(17) -0.0007(16)
C16 0.0313(19) 0.056(2) 0.073(3) 0.0043(19) -0.0025(18) -0.0011(16)
C17 0.043(2) 0.058(2) 0.066(3) 0.0029(19) 0.006(2) 0.0083(18)
C18 0.059(3) 0.0445(18) 0.0378(19) 0.0051(15) 0.0129(19) 0.0014(17)
C19 0.037(2) 0.064(2) 0.076(3) 0.009(2) 0.001(2) -0.0082(18)
C20 0.036(2) 0.057(2) 0.087(3) 0.011(2) 0.012(2) 0.0044(17)
loop_
_atom_type_symbol
_atom_type_description
_atom_type_scat_dispersion_real
_atom_type_scat_dispersion_imag
_atom_type_scat_source
C C 0.0033 0.0016 'International Tables Vol C Tables 4.2.6.8 and 6.1.1.4'
H H 0.0000 0.0000 'International Tables Vol C Tables 4.2.6.8 and 6.1.1.4'
N N 0.0061 0.0033 'International Tables Vol C Tables 4.2.6.8 and 6.1.1.4'
O O 0.0106 0.0060 'International Tables Vol C Tables 4.2.6.8 and 6.1.1.4'
S S 0.1246 0.1234 'International Tables Vol C Tables 4.2.6.8 and 6.1.1.4'
Ni Ni 0.3393 1.1124 'International Tables Vol C Tables 4.2.6.8 and 6.1.1.4'
Au Au -2.0133 8.8022 'International Tables Vol C Tables 4.2.6.8 and 6.1.1.4'
loop_
_geom_angle_atom_site_label_1
_geom_angle_atom_site_label_2
_geom_angle_atom_site_label_3
_geom_angle
S2 Ni1 S1 92.46(4)
S2 Ni1 S3 177.34(4)
S1 Ni1 S3 90.19(4)
S2 Ni1 S4 86.18(4)
S1 Ni1 S4 176.80(3)
S3 Ni1 S4 91.17(4)
C2 S1 Ni1 102.00(13)
C3 S2 Ni1 102.50(13)
C6 S3 Ni1 103.08(13)
C7 S4 Ni1 102.33(12)
C13 N5 C9 120.9(3)
C13 N5 C14 120.2(3)
C9 N5 C14 118.9(3)
O2 N6 O1 123.9(4)
O2 N6 C18 118.5(4)
O1 N6 C18 117.6(4)
N1 C1 C2 177.2(5)
C3 C2 C1 121.4(3)
C3 C2 S1 121.4(3)
C1 C2 S1 117.2(3)
C2 C3 C4 123.4(3)
C2 C3 S2 121.4(3)
C4 C3 S2 115.2(3)
N2 C4 C3 175.7(5)
N3 C5 C6 178.7(5)
C7 C6 C5 122.7(3)
C7 C6 S3 120.8(3)
C5 C6 S3 116.5(3)
C6 C7 C8 122.3(3)
C6 C7 S4 122.5(3)
C8 C7 S4 115.2(3)
N4 C8 C7 179.1(4)
N5 C9 C10 120.2(4)
C9 C10 C11 119.5(4)
C12 C11 C10 118.8(4)
C13 C12 C11 119.8(5)
N5 C13 C12 120.8(4)
N5 C14 C15 112.1(3)
C16 C15 C20 119.3(4)
C16 C15 C14 120.3(3)
C20 C15 C14 120.3(3)
C17 C16 C15 121.0(3)
C18 C17 C16 118.0(3)
C17 C18 C19 123.3(4)
C17 C18 N6 117.8(3)
C19 C18 N6 118.8(4)
C18 C19 C20 117.7(4)
C19 C20 C15 120.6(3)
loop_
_geom_bond_atom_site_label_1
_geom_bond_atom_site_label_2
_geom_bond_distance
Ni1 S2 2.1914(11)
Ni1 S1 2.1995(10)
Ni1 S3 2.2110(10)
Ni1 S4 2.2117(10)
S1 C2 1.728(4)
S2 C3 1.718(4)
S3 C6 1.722(3)
S4 C7 1.722(3)
O1 N6 1.211(5)
O2 N6 1.198(5)
N1 C1 1.146(5)
N2 C4 1.126(5)
N3 C5 1.122(5)
N4 C8 1.136(4)
N5 C13 1.334(5)
N5 C9 1.338(4)
N5 C14 1.481(4)
N6 C18 1.481(5)
C1 C2 1.416(5)
C2 C3 1.377(5)
C3 C4 1.439(5)
C5 C6 1.430(5)
C6 C7 1.351(5)
C7 C8 1.446(5)
C9 C10 1.358(6)
C10 C11 1.381(7)
C11 C12 1.371(6)
C12 C13 1.348(5)
C14 C15 1.513(5)
C15 C16 1.378(5)
C15 C20 1.386(5)
C16 C17 1.373(5)
C17 C18 1.368(5)
C18 C19 1.368(5)
C19 C20 1.382(5)
