#------------------------------------------------------------------------------
#$Date: 2017-10-13 02:32:00 +0300 (Fri, 13 Oct 2017) $
#$Revision: 201954 $
#$URL: file:///home/coder/svn-repositories/cod/cif/1/50/59/1505945.cif $
#------------------------------------------------------------------------------
#
# This file is available in the Crystallography Open Database (COD),
# http://www.crystallography.net/
#
# All data on this site have been placed in the public domain by the
# contributors.
#
data_1505945
loop_
_publ_author_name
'Evans, David A.'
'Aye, Yimon'
'Wu, Jimmy'
_publ_section_title
;
 Asymmetric, anti-selective scandium-catalyzed Sakurai additions to
 glyoxyamide. Applications to the syntheses of N-boc D-alloisoleucine and
 D-isoleucine.
;
_journal_issue                   10
_journal_name_full               'Organic letters'
_journal_page_first              2071
_journal_page_last               2073
_journal_paper_doi               10.1021/ol0604771
_journal_volume                  8
_journal_year                    2006
_chemical_formula_sum            'C13 H17 N O4 S'
_chemical_formula_weight         283.34
_chemical_name_systematic
; 
 ? 
;
_space_group_IT_number           19
_symmetry_cell_setting           orthorhombic
_symmetry_space_group_name_Hall  'P 2ac 2ab'
_symmetry_space_group_name_H-M   'P 21 21 21'
_atom_sites_solution_hydrogens   geom
_atom_sites_solution_primary     direct
_atom_sites_solution_secondary   difmap
_audit_creation_method           SHELXL-97
_cell_angle_alpha                90.00
_cell_angle_beta                 90.00
_cell_angle_gamma                90.00
_cell_formula_units_Z            4
_cell_length_a                   5.3345(9)
_cell_length_b                   15.737(2)
_cell_length_c                   17.134(3)
_cell_measurement_reflns_used    694
_cell_measurement_temperature    193(2)
_cell_measurement_theta_max      21.97
_cell_measurement_theta_min      2.38
_cell_volume                     1438.4(4)
_computing_cell_refinement       'Bruker SMART'
_computing_data_collection       'Bruker SMART'
_computing_data_reduction        'Bruker SAINT'
_computing_molecular_graphics    'Bruker SHELXTL'
_computing_publication_material  'Bruker SHELXTL'
_computing_structure_refinement  'SHELXL-97 (Sheldrick, 1997)'
_computing_structure_solution    'SHELXS-97 (Sheldrick, 1990)'
_diffrn_ambient_temperature      193(2)
_diffrn_measured_fraction_theta_full 1.000
_diffrn_measured_fraction_theta_max 1.000
_diffrn_measurement_device_type  'CCD area detector'
_diffrn_measurement_method       'phi and omega scans'
_diffrn_radiation_monochromator  graphite
_diffrn_radiation_source         'fine-focus sealed tube'
_diffrn_radiation_type           MoK\a
_diffrn_radiation_wavelength     0.71073
_diffrn_reflns_av_R_equivalents  0.0591
_diffrn_reflns_av_sigmaI/netI    0.0704
_diffrn_reflns_limit_h_max       6
_diffrn_reflns_limit_h_min       -6
_diffrn_reflns_limit_k_max       18
_diffrn_reflns_limit_k_min       -17
_diffrn_reflns_limit_l_max       16
_diffrn_reflns_limit_l_min       -20
_diffrn_reflns_number            8232
_diffrn_reflns_theta_full        25.00
_diffrn_reflns_theta_max         25.00
_diffrn_reflns_theta_min         1.76
_exptl_absorpt_coefficient_mu    0.234
_exptl_absorpt_correction_type   none
_exptl_crystal_colour            colourless
_exptl_crystal_density_diffrn    1.308
_exptl_crystal_density_meas      0
_exptl_crystal_density_method    'not measured'
_exptl_crystal_description       rod
_exptl_crystal_F_000             600
_exptl_crystal_size_max          0.02
_exptl_crystal_size_mid          0.01
_exptl_crystal_size_min          0.01
_refine_diff_density_max         0.180
_refine_diff_density_min         -0.199
_refine_diff_density_rms         0.039
_refine_ls_abs_structure_details 'Flack H D (1983), Acta Cryst. A39, 876-881'
_refine_ls_abs_structure_Flack   -0.06(9)
_refine_ls_extinction_method     none
_refine_ls_goodness_of_fit_ref   0.801
_refine_ls_hydrogen_treatment    mixed
_refine_ls_matrix_type           full
_refine_ls_number_parameters     240
_refine_ls_number_reflns         2547
_refine_ls_number_restraints     0
_refine_ls_restrained_S_all      0.801
_refine_ls_R_factor_all          0.0526
_refine_ls_R_factor_gt           0.0394
_refine_ls_shift/su_max          0.001
_refine_ls_shift/su_mean         0.000
_refine_ls_structure_factor_coef Fsqd
_refine_ls_weighting_details
'calc w=1/[\s^2^(Fo^2^)+(0.0288P)^2^+0.4540P] where P=(Fo^2^+2Fc^2^)/3'
_refine_ls_weighting_scheme      calc
_refine_ls_wR_factor_gt          0.0708
_refine_ls_wR_factor_ref         0.0752
_reflns_number_gt                2125
_reflns_number_total             2547
_reflns_threshold_expression     >2sigma(I)
_cod_data_source_file            ol0604771si20060224_113459.cif
_cod_data_source_block           jwu101t
_cod_depositor_comments
;
The following automatic conversions were performed:

'_symmetry_cell_setting' value 'Orthorhombic' changed to
'orthorhombic' according to
/home/saulius/struct/CIF-dictionaries/cif_core.dic dictionary named
'cif_core.dic' version 2.4.1 from 2010-06-29.

Automatic conversion script
Id: cif_fix_values 1715 2011-07-08 13:25:40Z adriana 
;
_cod_original_sg_symbol_H-M      P2(1)2(1)2(1)
_cod_database_code               1505945
loop_
_symmetry_equiv_pos_as_xyz
'x, y, z'
'-x+1/2, -y, z+1/2'
'-x, y+1/2, -z+1/2'
'x+1/2, -y+1/2, -z'
loop_
_atom_site_label
_atom_site_type_symbol
_atom_site_fract_x
_atom_site_fract_y
_atom_site_fract_z
_atom_site_U_iso_or_equiv
_atom_site_adp_type
_atom_site_occupancy
_atom_site_symmetry_multiplicity
_atom_site_calc_flag
C1 C 0.3404(5) 0.23442(16) 0.79061(16) 0.0249(6) Uani 1 1 d
C2 C 0.3091(5) 0.17012(17) 0.72523(17) 0.0268(6) Uani 1 1 d
C3 C 0.3617(7) 0.2108(2) 0.64629(19) 0.0398(8) Uani 1 1 d
C4 C 0.1791(9) 0.2785(2) 0.6264(2) 0.0510(10) Uani 1 1 d
C5 C 0.2336(12) 0.3595(3) 0.6178(3) 0.0746(14) Uani 1 1 d
C6 C 0.3777(13) 0.1432(3) 0.5822(3) 0.0747(15) Uani 1 1 d
C7 C 0.1256(5) 0.31416(15) 0.89585(15) 0.0201(6) Uani 1 1 d
C8 C -0.0784(5) 0.30638(17) 0.94558(16) 0.0227(6) Uani 1 1 d
C9 C -0.0996(6) 0.35880(17) 1.00956(17) 0.0272(7) Uani 1 1 d
C10 C 0.0828(6) 0.41886(18) 1.02546(18) 0.0313(7) Uani 1 1 d
C11 C 0.2864(6) 0.42624(18) 0.97568(19) 0.0317(7) Uani 1 1 d
C12 C 0.3080(5) 0.37453(18) 0.91066(17) 0.0274(7) Uani 1 1 d
C13 C 0.1757(6) -0.0299(2) 0.7084(2) 0.0383(8) Uani 1 1 d
H3 H 0.429(4) 0.1283(13) 0.7360(14) 0.013(6) Uiso 1 1 d
H4 H 0.018(7) 0.258(2) 0.616(2) 0.067(12) Uiso 1 1 d
H8 H -0.193(5) 0.2630(16) 0.9372(16) 0.031(8) Uiso 1 1 d
H9 H -0.242(5) 0.3529(15) 1.0442(16) 0.027(8) Uiso 1 1 d
H10 H 0.061(4) 0.4535(15) 1.0709(14) 0.021(6) Uiso 1 1 d
H11 H 0.416(5) 0.4646(17) 0.9859(15) 0.037(8) Uiso 1 1 d
H12 H 0.442(5) 0.3791(15) 0.8762(14) 0.025(7) Uiso 1 1 d
H5A H 0.422(8) 0.372(2) 0.628(2) 0.079(14) Uiso 1 1 d
H6A H 0.203(7) 0.125(2) 0.570(2) 0.058(12) Uiso 1 1 d
H13A H 0.111(6) -0.0253(16) 0.6533(18) 0.042(9) Uiso 1 1 d
H5B H 0.110(9) 0.405(3) 0.608(2) 0.095(15) Uiso 1 1 d
H6B H 0.429(7) 0.169(2) 0.533(2) 0.075(12) Uiso 1 1 d
H13B H 0.147(6) -0.0830(18) 0.7346(18) 0.052(9) Uiso 1 1 d
H3C H 0.522(6) 0.2362(17) 0.6486(17) 0.036(8) Uiso 1 1 d
H6C H 0.488(9) 0.097(3) 0.594(3) 0.112(19) Uiso 1 1 d
H13C H 0.352(6) -0.0189(17) 0.7121(16) 0.045(9) Uiso 1 1 d
H1N H 0.001(5) 0.2371(15) 0.8174(15) 0.022(7) Uiso 1 1 d
N1 N 0.1356(4) 0.25960(13) 0.82964(13) 0.0228(5) Uani 1 1 d
O1 O 0.5540(3) 0.26034(11) 0.80270(12) 0.0349(5) Uani 1 1 d
O2 O 0.0583(3) 0.13253(10) 0.72247(11) 0.0273(4) Uani 1 1 d
O3 O -0.2473(3) 0.03029(11) 0.75850(13) 0.0415(6) Uani 1 1 d
O4 O 0.1250(4) 0.04816(11) 0.84097(11) 0.0376(5) Uani 1 1 d
S1 S 0.01456(12) 0.04461(4) 0.76567(4) 0.02810(18) Uani 1 1 d
loop_
_atom_site_aniso_label
_atom_site_aniso_U_11
_atom_site_aniso_U_22
_atom_site_aniso_U_33
_atom_site_aniso_U_23
_atom_site_aniso_U_13
_atom_site_aniso_U_12
C1 0.0234(15) 0.0260(14) 0.0253(17) 0.0028(12) -0.0017(12) 0.0025(12)
C2 0.0187(13) 0.0283(14) 0.0335(17) -0.0039(14) 0.0008(14) 0.0025(12)
C3 0.046(2) 0.0438(19) 0.0299(19) -0.0043(15) 0.0114(17) -0.0071(17)
C4 0.072(3) 0.051(2) 0.030(2) 0.0055(17) -0.002(2) 0.000(2)
C5 0.120(5) 0.051(3) 0.053(3) -0.002(2) -0.008(3) 0.011(3)
C6 0.120(5) 0.067(3) 0.037(2) -0.015(2) 0.026(3) -0.004(3)
C7 0.0183(13) 0.0193(14) 0.0226(15) 0.0020(11) -0.0037(12) 0.0017(12)
C8 0.0207(14) 0.0201(14) 0.0273(15) 0.0029(12) -0.0063(13) -0.0035(11)
C9 0.0272(16) 0.0292(16) 0.0251(16) -0.0007(13) 0.0041(13) 0.0027(13)
C10 0.0353(18) 0.0287(16) 0.0300(17) -0.0068(13) -0.0015(14) 0.0017(13)
C11 0.0310(17) 0.0227(16) 0.0415(19) -0.0054(14) -0.0023(15) -0.0061(13)
C12 0.0233(15) 0.0290(16) 0.0299(17) 0.0013(14) 0.0062(14) -0.0020(13)
C13 0.0265(18) 0.0313(18) 0.057(3) -0.0152(17) -0.0012(16) 0.0005(14)
N1 0.0161(12) 0.0258(13) 0.0264(14) -0.0032(10) -0.0022(11) -0.0025(11)
O1 0.0188(10) 0.0451(12) 0.0408(12) -0.0125(10) 0.0010(9) -0.0029(9)
O2 0.0210(10) 0.0270(9) 0.0339(11) -0.0076(8) -0.0023(9) 0.0018(7)
O3 0.0215(10) 0.0349(11) 0.0679(16) -0.0065(12) 0.0022(10) -0.0002(8)
O4 0.0450(12) 0.0338(11) 0.0340(12) -0.0013(10) -0.0043(10) -0.0037(10)
S1 0.0208(3) 0.0255(3) 0.0380(4) -0.0076(3) -0.0023(3) 0.0008(3)
loop_
_atom_type_symbol
_atom_type_description
_atom_type_scat_dispersion_real
_atom_type_scat_dispersion_imag
_atom_type_scat_source
C C 0.0033 0.0016 'International Tables Vol C Tables 4.2.6.8 and 6.1.1.4'
H H 0.0000 0.0000 'International Tables Vol C Tables 4.2.6.8 and 6.1.1.4'
N N 0.0061 0.0033 'International Tables Vol C Tables 4.2.6.8 and 6.1.1.4'
O O 0.0106 0.0060 'International Tables Vol C Tables 4.2.6.8 and 6.1.1.4'
S S 0.1246 0.1234 'International Tables Vol C Tables 4.2.6.8 and 6.1.1.4'
loop_
_geom_angle_atom_site_label_1
_geom_angle_atom_site_label_2
_geom_angle_atom_site_label_3
_geom_angle
O1 C1 N1 125.0(2)
O1 C1 C2 116.6(2)
N1 C1 C2 118.4(2)
O2 C2 C1 113.2(2)
O2 C2 C3 108.0(2)
C1 C2 C3 110.8(2)
C4 C3 C2 112.6(3)
C4 C3 C6 111.8(4)
C2 C3 C6 110.8(3)
C5 C4 C3 125.2(5)
C8 C7 C12 120.0(2)
C8 C7 N1 117.7(2)
C12 C7 N1 122.3(2)
C9 C8 C7 120.0(3)
C8 C9 C10 120.6(3)
C9 C10 C11 119.2(3)
C12 C11 C10 120.8(3)
C11 C12 C7 119.5(3)
C1 N1 C7 127.3(2)
C2 O2 S1 118.15(15)
O4 S1 O3 119.56(13)
O4 S1 O2 109.19(10)
O3 S1 O2 104.04(10)
O4 S1 C13 109.34(15)
O3 S1 C13 109.12(14)
O2 S1 C13 104.49(15)
loop_
_geom_bond_atom_site_label_1
_geom_bond_atom_site_label_2
_geom_bond_distance
C1 O1 1.228(3)
C1 N1 1.341(3)
C1 C2 1.519(4)
C2 O2 1.464(3)
C2 C3 1.523(4)
C3 C4 1.483(5)
C3 C6 1.531(5)
C4 C5 1.316(6)
C7 C8 1.388(4)
C7 C12 1.383(4)
C7 N1 1.424(3)
C8 C9 1.377(4)
C9 C10 1.383(4)
C10 C11 1.386(4)
C11 C12 1.384(4)
C13 S1 1.754(3)
O2 S1 1.5864(18)
O3 S1 1.4202(17)
O4 S1 1.419(2)
loop_
_geom_hbond_atom_site_label_D
_geom_hbond_atom_site_label_H
_geom_hbond_atom_site_label_A
_geom_hbond_distance_DH
_geom_hbond_distance_HA
_geom_hbond_distance_DA
_geom_hbond_angle_DHA
_geom_hbond_site_symmetry_A
N1 H1N O2 0.83(3) 2.33(3) 2.746(3) 111(2) .
N1 H1N O1 0.83(3) 2.42(3) 3.137(3) 145(2) 1_455
loop_
_geom_torsion_atom_site_label_1
_geom_torsion_atom_site_label_2
_geom_torsion_atom_site_label_3
_geom_torsion_atom_site_label_4
_geom_torsion
O1 C1 C2 O2 171.0(2)
N1 C1 C2 O2 -10.1(3)
O1 C1 C2 C3 -67.5(3)
N1 C1 C2 C3 111.4(3)
O2 C2 C3 C4 60.2(3)
C1 C2 C3 C4 -64.4(4)
O2 C2 C3 C6 -65.9(4)
C1 C2 C3 C6 169.6(4)
C2 C3 C4 C5 115.6(4)
C6 C3 C4 C5 -118.8(5)
C12 C7 C8 C9 0.1(4)
N1 C7 C8 C9 -178.7(2)
C7 C8 C9 C10 -0.8(4)
C8 C9 C10 C11 0.6(4)
C9 C10 C11 C12 0.1(4)
C10 C11 C12 C7 -0.8(4)
C8 C7 C12 C11 0.6(4)
N1 C7 C12 C11 179.4(3)
O1 C1 N1 C7 -6.0(4)
C2 C1 N1 C7 175.2(2)
C8 C7 N1 C1 -154.8(3)
C12 C7 N1 C1 26.4(4)
C1 C2 O2 S1 -94.8(2)
C3 C2 O2 S1 142.18(18)
C2 O2 S1 O4 45.9(2)
C2 O2 S1 O3 174.56(18)
C2 O2 S1 C13 -71.0(2)
loop_
_cod_related_entry_id
_cod_related_entry_code
_cod_related_entry_database
1 21199842 ChemSpider
