#------------------------------------------------------------------------------
#$Date: 2016-02-18 17:37:37 +0200 (Thu, 18 Feb 2016) $
#$Revision: 176729 $
#$URL: svn://www.crystallography.net/cod/cif/1/50/74/1507478.cif $
#------------------------------------------------------------------------------
#
# This file is available in the Crystallography Open Database (COD),
# http://www.crystallography.net/
#
# All data on this site have been placed in the public domain by the
# contributors.
#
data_1507478
loop_
_publ_author_name
'Williams, Jodi T.'
'Bahia, Perdip Singh'
'Snaith, John S.'
_publ_section_title
;
 Synthesis of 3,4-Disubstituted Piperidines by Carbonyl Ene and Prins
 Cyclizations:&#x2009; A Switch in Diastereoselectivity between Lewis and
 Br\/onsted Acid Catalysts
;
_journal_issue                   21
_journal_name_full               'Organic Letters'
_journal_page_first              3727
_journal_paper_doi               10.1021/ol0266929
_journal_volume                  4
_journal_year                    2002
_chemical_formula_sum            'C15 H21 N O3 S'
_chemical_formula_weight         295.39
_chemical_name_systematic
; 
 ? 
;
_space_group_IT_number           14
_symmetry_cell_setting           monoclinic
_symmetry_space_group_name_Hall  '-P 2ybc'
_symmetry_space_group_name_H-M   'P 1 21/c 1'
_atom_sites_solution_hydrogens   geom
_atom_sites_solution_primary     direct
_atom_sites_solution_secondary   difmap
_audit_creation_method           SHELXL
_cell_angle_alpha                90.00
_cell_angle_beta                 99.50(5)
_cell_angle_gamma                90.00
_cell_formula_units_Z            4
_cell_length_a                   12.314(9)
_cell_length_b                   5.395(4)
_cell_length_c                   23.491(9)
_cell_measurement_reflns_used    2379
_cell_measurement_temperature    296(2)
_cell_measurement_theta_max      25.35
_cell_measurement_theta_min      1.68
_cell_volume                     1539.2(17)
_computing_structure_refinement  'SHELXL-93 (Sheldrick, 1993)'
_computing_structure_solution    'SHELXS-86 (Sheldrick, 1990)'
_diffrn_ambient_temperature      296(2)
_diffrn_measurement_device       'R-axis II'
_diffrn_measurement_method       'Image plate scans'
_diffrn_radiation_monochromator  graphite
_diffrn_radiation_source         'Rotating anode'
_diffrn_radiation_type           MoK\a
_diffrn_radiation_wavelength     0.71069
_diffrn_reflns_av_R_equivalents  0.0661
_diffrn_reflns_av_sigmaI/netI    0.0992
_diffrn_reflns_limit_h_max       14
_diffrn_reflns_limit_h_min       -14
_diffrn_reflns_limit_k_max       6
_diffrn_reflns_limit_k_min       -6
_diffrn_reflns_limit_l_max       28
_diffrn_reflns_limit_l_min       -25
_diffrn_reflns_number            4873
_diffrn_reflns_theta_max         25.35
_diffrn_reflns_theta_min         1.68
_exptl_absorpt_coefficient_mu    0.217
_exptl_absorpt_correction_type   none
_exptl_crystal_colour            white
_exptl_crystal_density_diffrn    1.275
_exptl_crystal_description       needle
_exptl_crystal_F_000             632
_exptl_crystal_size_max          0.50
_exptl_crystal_size_mid          0.15
_exptl_crystal_size_min          0.15
_refine_diff_density_max         0.295
_refine_diff_density_min         -0.316
_refine_diff_density_rms         0.062
_refine_ls_extinction_coef       0.0235(76)
_refine_ls_extinction_expression Fc^*^=kFc[1+0.001xFc^2^\l^3^/sin(2\q)]^-1/4^
_refine_ls_extinction_method     SHELXL
_refine_ls_goodness_of_fit_all   1.006
_refine_ls_goodness_of_fit_obs   1.062
_refine_ls_matrix_type           full
_refine_ls_number_parameters     188
_refine_ls_number_reflns         2376
_refine_ls_number_restraints     0
_refine_ls_restrained_S_all      1.131
_refine_ls_restrained_S_obs      1.062
_refine_ls_R_factor_all          0.0922
_refine_ls_R_factor_obs          0.0666
_refine_ls_shift/esd_max         0.242
_refine_ls_shift/esd_mean        0.010
_refine_ls_structure_factor_coef Fsqd
_refine_ls_weighting_details
'w=1/[\s^2^(Fo^2^)+(0.1008P)^2^+0.0000P] where P=(Fo^2^+2Fc^2^)/3'
_refine_ls_weighting_scheme      calc
_refine_ls_wR_factor_all         0.2162
_refine_ls_wR_factor_obs         0.1722
_reflns_number_observed          1742
_reflns_number_total             2379
_reflns_observed_criterion       >2sigma(I)
_cod_data_source_file            ol0266929_s2.cif
_cod_data_source_block           js1
_cod_depositor_comments
;
The following automatic conversions were performed:

'_symmetry_cell_setting' value 'Monoclinic' changed to 'monoclinic'
according to /home/saulius/struct/CIF-dictionaries/cif_core.dic
dictionary named 'cif_core.dic' version 2.4.1 from 2010-06-29.

Automatic conversion script
Id: cif_fix_values 1715 2011-07-08 13:25:40Z adriana 

The following automatic conversions were performed:

'_refine_ls_weighting_scheme' value 'calc
w=1/[\s^2^(Fo^2^)+(0.1008P)^2^+0.0000P] where P=(Fo^2^+2Fc^2^)/3' was
changed to 'calc'. New tag '_refine_ls_weighting_details' was
created. The value of the new tag was set to
'w=1/[\s^2^(Fo^2^)+(0.1008P)^2^+0.0000P] where P=(Fo^2^+2Fc^2^)/3'.

Automatic conversion script
Id: cif_fix_values 3143 2015-03-26 13:38:13Z robertas 
;
_cod_original_cell_volume        1539.1(17)
_cod_original_sg_symbol_H-M      P21/c
_cod_database_code               1507478
loop_
_symmetry_equiv_pos_as_xyz
'x, y, z'
'-x, y+1/2, -z+1/2'
'-x, -y, -z'
'x, -y-1/2, z-1/2'
loop_
_atom_site_aniso_label
_atom_site_aniso_U_11
_atom_site_aniso_U_22
_atom_site_aniso_U_33
_atom_site_aniso_U_23
_atom_site_aniso_U_13
_atom_site_aniso_U_12
S1 0.0679(6) 0.0614(6) 0.0833(6) 0.0003(3) 0.0127(4) 0.0043(3)
O1 0.0798(15) 0.0758(15) 0.1058(15) 0.0225(11) 0.0175(12) 0.0042(11)
O2 0.090(2) 0.0725(15) 0.0979(14) -0.0186(11) 0.0214(12) 0.0055(12)
O3 0.071(2) 0.093(2) 0.106(2) 0.0102(14) -0.0102(12) 0.0127(14)
N1 0.0598(14) 0.0676(15) 0.0707(13) -0.0003(10) 0.0118(10) 0.0033(11)
C1 0.060(2) 0.067(2) 0.070(2) 0.0019(13) 0.0076(13) 0.0073(14)
C2 0.079(2) 0.087(2) 0.066(2) 0.0052(14) 0.015(2) 0.000(2)
C3 0.071(2) 0.085(2) 0.086(2) 0.014(2) 0.011(2) -0.012(2)
C4 0.067(2) 0.081(2) 0.086(2) 0.001(2) -0.001(2) 0.006(2)
C5 0.079(2) 0.091(2) 0.074(2) -0.011(2) 0.007(2) 0.006(2)
C6 0.075(2) 0.084(2) 0.071(2) 0.0029(15) 0.0170(14) 0.005(2)
C7 0.087(3) 0.099(3) 0.135(3) -0.008(2) -0.004(2) -0.003(2)
C8 0.068(2) 0.068(2) 0.067(2) 0.0016(13) 0.0086(13) 0.0008(14)
C9 0.061(2) 0.070(2) 0.079(2) -0.0010(14) 0.0101(14) 0.0033(14)
C10 0.063(2) 0.074(2) 0.084(2) 0.0067(14) -0.0002(15) 0.0039(14)
C11 0.073(2) 0.087(2) 0.072(2) 0.0056(15) 0.0057(15) -0.003(2)
C12 0.072(2) 0.073(2) 0.070(2) 0.0035(13) 0.0114(14) -0.004(2)
C13 0.071(2) 0.090(2) 0.091(2) 0.004(2) 0.017(2) 0.015(2)
C14 0.117(3) 0.099(3) 0.126(3) -0.021(2) 0.043(2) 0.008(2)
C15 0.099(3) 0.130(4) 0.159(4) -0.014(3) 0.050(3) 0.007(3)
loop_
_atom_site_label
_atom_site_type_symbol
_atom_site_fract_x
_atom_site_fract_y
_atom_site_fract_z
_atom_site_U_iso_or_equiv
_atom_site_thermal_displace_type
_atom_site_occupancy
_atom_site_calc_flag
_atom_site_refinement_flags
S1 S 0.43613(6) -0.00050(13) 0.85533(3) 0.0708(4) Uani 1 d .
O1 O 0.4087(2) -0.1461(4) 0.90198(9) 0.0869(7) Uani 1 d .
O2 O 0.4704(2) -0.1171(4) 0.80650(9) 0.0861(7) Uani 1 d .
O3 O 0.0409(2) 0.5551(6) 0.76376(10) 0.0932(8) Uani 1 d .
N1 N 0.3253(2) 0.1584(4) 0.83019(9) 0.0659(6) Uani 1 d .
C1 C 0.5390(2) 0.2132(5) 0.88376(11) 0.0659(7) Uani 1 d .
C2 C 0.6029(3) 0.3237(6) 0.84763(12) 0.0773(9) Uani 1 d .
H2 H 0.5951(3) 0.2793(6) 0.80891(12) 0.093 Uiso 1 calc R
C3 C 0.6787(3) 0.5017(6) 0.87043(14) 0.0811(10) Uani 1 d .
H3 H 0.7219(3) 0.5769(6) 0.84641(14) 0.097 Uiso 1 calc R
C4 C 0.6922(3) 0.5707(7) 0.92759(13) 0.0798(9) Uani 1 d .
C5 C 0.6289(3) 0.4561(6) 0.96266(13) 0.0821(9) Uani 1 d .
H5 H 0.6377(3) 0.5000(6) 1.00143(13) 0.099 Uiso 1 calc R
C6 C 0.5525(3) 0.2775(6) 0.94199(12) 0.0761(8) Uani 1 d .
H6 H 0.5107(3) 0.2011(6) 0.96649(12) 0.091 Uiso 1 calc R
C7 C 0.7724(3) 0.7766(8) 0.9508(2) 0.1095(12) Uani 1 d .
H7A H 0.7990(15) 0.8563(28) 0.9193(2) 0.131 Uiso 1 calc R
H7B H 0.8333(10) 0.7070(9) 0.9767(8) 0.131 Uiso 1 calc R
H7C H 0.7354(6) 0.8960(23) 0.9711(8) 0.131 Uiso 1 calc R
C8 C 0.2685(2) 0.2821(5) 0.87300(11) 0.0678(8) Uani 1 d .
H8A H 0.3062(2) 0.4351(5) 0.88579(11) 0.081 Uiso 1 calc R
H8B H 0.2692(2) 0.1756(5) 0.90633(11) 0.081 Uiso 1 calc R
C9 C 0.1500(2) 0.3374(5) 0.84537(12) 0.0703(8) Uani 1 d .
H9 H 0.1153(2) 0.1798(5) 0.83197(12) 0.084 Uiso 1 calc R
C10 C 0.1507(3) 0.5028(5) 0.79210(13) 0.0746(9) Uani 1 d .
H10 H 0.1859(3) 0.6603(5) 0.80516(13) 0.090 Uiso 1 calc R
C11 C 0.2174(2) 0.3835(7) 0.75055(12) 0.0780(9) Uani 1 d .
H11A H 0.1804(2) 0.2340(7) 0.73472(12) 0.094 Uiso 1 calc R
H11B H 0.2213(2) 0.4964(7) 0.71881(12) 0.094 Uiso 1 calc R
C12 C 0.3328(2) 0.3190(6) 0.77958(12) 0.0717(8) Uani 1 d .
H12A H 0.3714(2) 0.2325(6) 0.75271(12) 0.086 Uiso 1 calc R
H12B H 0.3733(2) 0.4690(6) 0.79203(12) 0.086 Uiso 1 calc R
C13 C 0.0840(3) 0.4484(7) 0.88866(14) 0.0836(9) Uani 1 d .
C14 C 0.1183(3) 0.6634(8) 0.9189(2) 0.1115(13) Uani 1 d .
H14A H 0.0778(3) 0.7262(8) 0.9458(2) 0.134 Uiso 1 calc R
H14B H 0.1816(3) 0.7446(8) 0.9122(2) 0.134 Uiso 1 calc R
C15 C -0.0119(3) 0.3186(9) 0.8974(2) 0.126(2) Uani 1 d .
H15A H 0.0056(6) 0.1467(13) 0.9043(11) 0.151 Uiso 1 calc R
H15B H -0.0672(8) 0.3341(41) 0.8636(5) 0.151 Uiso 1 calc R
H15C H -0.0390(13) 0.3871(34) 0.9300(7) 0.151 Uiso 1 calc R
H13 H 0.0054(45) 0.3967(115) 0.7514(24) 0.191(22) Uiso 1 d .
loop_
_atom_type_symbol
_atom_type_description
_atom_type_scat_dispersion_real
_atom_type_scat_dispersion_imag
_atom_type_scat_source
C C 0.0033 0.0016 'International Tables Vol C Tables 4.2.6.8 and 6.1.1.4'
H H 0.0000 0.0000 'International Tables Vol C Tables 4.2.6.8 and 6.1.1.4'
N N 0.0061 0.0033 'International Tables Vol C Tables 4.2.6.8 and 6.1.1.4'
O O 0.0106 0.0060 'International Tables Vol C Tables 4.2.6.8 and 6.1.1.4'
S S 0.1246 0.1234 'International Tables Vol C Tables 4.2.6.8 and 6.1.1.4'
loop_
_geom_angle_atom_site_label_1
_geom_angle_atom_site_label_2
_geom_angle_atom_site_label_3
_geom_angle
O2 S1 O1 120.6(2)
O2 S1 N1 106.22(13)
O1 S1 N1 105.98(13)
O2 S1 C1 107.66(13)
O1 S1 C1 108.31(14)
N1 S1 C1 107.38(14)
C8 N1 C12 112.4(2)
C8 N1 S1 116.8(2)
C12 N1 S1 115.8(2)
C2 C1 C6 120.4(3)
C2 C1 S1 119.7(2)
C6 C1 S1 119.8(2)
C3 C2 C1 118.5(3)
C4 C3 C2 122.0(3)
C5 C4 C3 118.4(3)
C5 C4 C7 120.8(3)
C3 C4 C7 120.8(3)
C4 C5 C6 121.7(3)
C5 C6 C1 119.0(3)
N1 C8 C9 109.0(2)
C13 C9 C8 111.7(2)
C13 C9 C10 112.9(3)
C8 C9 C10 109.1(2)
O3 C10 C11 110.7(2)
O3 C10 C9 111.2(2)
C11 C10 C9 110.7(3)
C12 C11 C10 112.1(2)
N1 C12 C11 108.5(2)
C14 C13 C15 122.0(3)
C14 C13 C9 121.2(3)
C15 C13 C9 116.8(3)
loop_
_geom_bond_atom_site_label_1
_geom_bond_atom_site_label_2
_geom_bond_distance
S1 O2 1.431(2)
S1 O1 1.433(2)
S1 N1 1.637(2)
S1 C1 1.761(3)
O3 C10 1.433(4)
N1 C8 1.476(3)
N1 C12 1.486(3)
C1 C2 1.384(4)
C1 C6 1.394(4)
C2 C3 1.384(4)
C3 C4 1.377(4)
C4 C5 1.371(4)
C4 C7 1.526(5)
C5 C6 1.377(4)
C8 C9 1.526(4)
C9 C13 1.525(4)
C9 C10 1.538(4)
C10 C11 1.519(4)
C11 C12 1.512(4)
C13 C14 1.389(5)
C13 C15 1.416(5)
