#------------------------------------------------------------------------------
#$Date: 2016-02-18 17:37:37 +0200 (Thu, 18 Feb 2016) $
#$Revision: 176729 $
#$URL: svn://www.crystallography.net/cod/cif/1/50/86/1508639.cif $
#------------------------------------------------------------------------------
#
# This file is available in the Crystallography Open Database (COD),
# http://www.crystallography.net/
#
# All data on this site have been placed in the public domain by the
# contributors.
#
data_1508639
loop_
_publ_author_name
'Tolstoy, P\"aivi'
'Lee, Samantha X. Y.'
'Sparr, Christof'
'Ley, Steven V.'
_publ_section_title
;
 Synthesis of enantiomerically enriched 3-amino-2-oxindoles through a
 palladium-mediated asymmetric intramolecular arylation of \a-ketimino
 amides.
;
_journal_issue                   18
_journal_name_full               'Organic letters'
_journal_page_first              4810
_journal_page_last               4813
_journal_paper_doi               10.1021/ol302119j
_journal_volume                  14
_journal_year                    2012
_chemical_absolute_configuration
;
 Flack parameter -0.09(7)
;
_chemical_formula_moiety         'C22 H17 F3 N2 O5 S'
_chemical_formula_sum            'C22 H17 F3 N2 O5 S'
_chemical_formula_weight         478.44
_chemical_name_systematic
; 
 ? 
;
_space_group_IT_number           4
_symmetry_cell_setting           monoclinic
_symmetry_space_group_name_Hall  'P 2yb'
_symmetry_space_group_name_H-M   'P 1 21 1'
_atom_sites_solution_hydrogens   geom
_atom_sites_solution_primary     direct
_atom_sites_solution_secondary   difmap
_audit_creation_method           SHELXL-97
_cell_angle_alpha                90.00
_cell_angle_beta                 90.347(2)
_cell_angle_gamma                90.00
_cell_formula_units_Z            2
_cell_length_a                   6.1607(2)
_cell_length_b                   15.6317(7)
_cell_length_c                   11.1413(5)
_cell_measurement_reflns_used    3708
_cell_measurement_temperature    180(2)
_cell_measurement_theta_max      27.88
_cell_measurement_theta_min      1.00
_cell_volume                     1072.91(8)
_computing_cell_refinement       'HKL Scalepack (Otwinowski & Minor 1997)'
_computing_data_collection       'Collect (Nonius B.V. 1998)'
_computing_data_reduction
;
 HKL Denzo and Scalepack (Otwinowski & Minor 1997)
;
_computing_publication_material  'SHELXL-97 (Sheldrick 1997)'
_computing_structure_refinement  'SHELXL-97 (Sheldrick 1997)'
_computing_structure_solution    'SIR-92 (Altomare et al. 1994)'
_diffrn_ambient_temperature      180(2)
_diffrn_measured_fraction_theta_full 0.987
_diffrn_measured_fraction_theta_max 0.987
_diffrn_measurement_device_type  'Nonius Kappa CCD'
_diffrn_measurement_method       'Thin slice \w and \f scans'
_diffrn_radiation_source         'fine-focus sealed tube'
_diffrn_radiation_type           MoK\a
_diffrn_radiation_wavelength     0.71073
_diffrn_reflns_av_R_equivalents  0.0383
_diffrn_reflns_av_sigmaI/netI    0.1057
_diffrn_reflns_limit_h_max       8
_diffrn_reflns_limit_h_min       -8
_diffrn_reflns_limit_k_max       20
_diffrn_reflns_limit_k_min       -18
_diffrn_reflns_limit_l_max       14
_diffrn_reflns_limit_l_min       -14
_diffrn_reflns_number            7062
_diffrn_reflns_theta_full        27.81
_diffrn_reflns_theta_max         27.81
_diffrn_reflns_theta_min         3.55
_exptl_absorpt_coefficient_mu    0.215
_exptl_absorpt_correction_T_max  0.990
_exptl_absorpt_correction_T_min  0.873
_exptl_absorpt_correction_type   multi-scan
_exptl_absorpt_process_details
;
multi-scan from symmetry-related measurements 
 Sortav (Blessing 1995)
;
_exptl_crystal_colour            colourless
_exptl_crystal_density_diffrn    1.481
_exptl_crystal_density_method    'not measured'
_exptl_crystal_description       block
_exptl_crystal_F_000             492
_exptl_crystal_size_max          0.16
_exptl_crystal_size_mid          0.10
_exptl_crystal_size_min          0.05
_refine_diff_density_max         0.166
_refine_diff_density_min         -0.202
_refine_diff_density_rms         0.039
_refine_ls_abs_structure_details 'Flack H D (1983), Acta Cryst. A39, 876-881'
_refine_ls_abs_structure_Flack   -0.09(7)
_refine_ls_extinction_method     none
_refine_ls_goodness_of_fit_ref   0.797
_refine_ls_hydrogen_treatment    constr
_refine_ls_matrix_type           full
_refine_ls_number_parameters     327
_refine_ls_number_reflns         4262
_refine_ls_number_restraints     16
_refine_ls_restrained_S_all      0.802
_refine_ls_R_factor_all          0.0806
_refine_ls_R_factor_gt           0.0379
_refine_ls_shift/su_max          0.001
_refine_ls_shift/su_mean         0.000
_refine_ls_structure_factor_coef Fsqd
_refine_ls_weighting_details
'calc w=1/[\s^2^(Fo^2^)+(0.0283P)^2^+0.0000P] where P=(Fo^2^+2Fc^2^)/3'
_refine_ls_weighting_scheme      calc
_refine_ls_wR_factor_gt          0.0683
_refine_ls_wR_factor_ref         0.0733
_reflns_number_gt                2340
_reflns_number_total             4262
_reflns_threshold_expression     >2sigma(I)
_cod_data_source_file            ol302119j_si_001.cif
_cod_data_source_block           sl1239
_cod_original_sg_symbol_H-M      P2(1)
_cod_database_code               1508639
loop_
_symmetry_equiv_pos_as_xyz
'x, y, z'
'-x, y+1/2, -z'
loop_
_atom_site_label
_atom_site_type_symbol
_atom_site_fract_x
_atom_site_fract_y
_atom_site_fract_z
_atom_site_U_iso_or_equiv
_atom_site_adp_type
_atom_site_occupancy
_atom_site_symmetry_multiplicity
_atom_site_calc_flag
_atom_site_refinement_flags
_atom_site_disorder_assembly
_atom_site_disorder_group
S1 S 0.17952(19) 0.93926(7) 0.39572(11) 0.0467(3) Uani 0.78 1 d PD A 1
O2 O 0.0467(5) 0.99332(15) 0.4622(2) 0.0711(8) Uani 0.78 1 d PD A 1
O3 O 0.3882(4) 0.96548(19) 0.3543(4) 0.0766(11) Uani 0.78 1 d PD A 1
C7 C 0.0277(7) 0.9058(3) 0.2616(4) 0.0580(11) Uani 0.78 1 d PD A 1
F1 F 0.1307(5) 0.84867(15) 0.20192(18) 0.0924(9) Uani 0.78 1 d PD A 1
F2 F -0.0125(6) 0.9734(2) 0.1942(3) 0.0725(10) Uani 0.78 1 d PD A 1
F3 F -0.1679(5) 0.8745(2) 0.2976(3) 0.0759(10) Uani 0.78 1 d PD A 1
S1' S 0.2378(9) 0.9182(3) 0.3339(4) 0.0624(14) Uani 0.22 1 d PD A 2
O2' O 0.323(3) 0.9932(9) 0.3742(19) 0.131(3) Uiso 0.22 1 d PD A 2
O3' O 0.332(2) 0.8739(8) 0.2329(10) 0.131(3) Uiso 0.22 1 d PD A 2
C7' C -0.0490(16) 0.9328(11) 0.2974(14) 0.131(3) Uiso 0.22 1 d PD A 2
F1' F -0.126(3) 0.8607(12) 0.2673(18) 0.131(3) Uiso 0.22 1 d PD A 2
F2' F -0.054(3) 0.9855(14) 0.2053(15) 0.131(3) Uiso 0.22 1 d PD A 2
F3' F -0.1367(16) 0.9702(8) 0.3965(10) 0.131(3) Uiso 0.22 1 d PD A 2
C22 C -0.6710(5) 0.6401(2) -0.2423(2) 0.0668(10) Uani 1 1 d . . .
H22A H -0.8058 0.6495 -0.2876 0.100 Uiso 1 1 calc R . .
H22B H -0.6360 0.5789 -0.2421 0.100 Uiso 1 1 calc R . .
H22C H -0.5527 0.6720 -0.2799 0.100 Uiso 1 1 calc R . .
C14 C -0.1311(5) 0.37366(17) 0.1591(2) 0.0501(7) Uani 1 1 d . . .
H14 H -0.2617 0.3422 0.1693 0.060 Uiso 1 1 calc R . .
C12 C 0.2279(5) 0.38331(18) 0.0814(2) 0.0504(7) Uani 1 1 d . . .
H12 H 0.3443 0.3590 0.0375 0.060 Uiso 1 1 calc R . .
C17 C -0.1730(4) 0.61155(16) 0.0158(2) 0.0371(6) Uani 1 1 d . . .
H17 H -0.0452 0.5799 -0.0012 0.044 Uiso 1 1 calc R . .
C4 C 0.7658(4) 0.73089(19) 0.5586(2) 0.0473(7) Uani 1 1 d . . .
H4 H 0.8970 0.7034 0.5818 0.057 Uiso 1 1 calc R . .
C11 C 0.2489(4) 0.46475(17) 0.1307(2) 0.0419(7) Uani 1 1 d . . .
H11 H 0.3806 0.4956 0.1216 0.050 Uiso 1 1 calc R . .
C1 C 0.3927(4) 0.81007(17) 0.4895(2) 0.0391(6) Uani 1 1 d . A .
C15 C -0.1130(4) 0.45451(17) 0.2072(2) 0.0395(6) Uani 1 1 d . . .
H15 H -0.2309 0.4786 0.2500 0.047 Uiso 1 1 calc R . .
C2 C 0.4257(4) 0.72678(17) 0.45208(19) 0.0344(6) Uani 1 1 d . . .
C3 C 0.6185(4) 0.68676(17) 0.48853(18) 0.0406(7) Uani 1 1 d . . .
H3 H 0.6477 0.6295 0.4651 0.049 Uiso 1 1 calc R . .
C6 C 0.5376(4) 0.85364(18) 0.5621(2) 0.0463(7) Uani 1 1 d . . .
H6 H 0.5070 0.9102 0.5882 0.056 Uiso 1 1 calc R . .
C13 C 0.0378(5) 0.33805(18) 0.0965(2) 0.0536(8) Uani 1 1 d . . .
H13 H 0.0236 0.2823 0.0635 0.064 Uiso 1 1 calc R . .
C18 C -0.3370(4) 0.61729(16) -0.0700(2) 0.0384(6) Uani 1 1 d . . .
H18 H -0.3199 0.5905 -0.1459 0.046 Uiso 1 1 calc R . .
C20 C -0.5467(4) 0.70318(17) 0.06433(19) 0.0388(6) Uani 1 1 d . . .
H20 H -0.6762 0.7336 0.0819 0.047 Uiso 1 1 calc R . .
C5 C 0.7287(4) 0.8133(2) 0.5960(2) 0.0491(7) Uani 1 1 d . . .
H5 H 0.8327 0.8423 0.6444 0.059 Uiso 1 1 calc R . .
N2 N -0.0310(3) 0.65329(13) 0.21750(16) 0.0354(5) Uani 1 1 d . . .
C21 C -0.3807(4) 0.70003(15) 0.14728(19) 0.0356(6) Uani 1 1 d . . .
H21 H -0.3932 0.7312 0.2201 0.043 Uiso 1 1 calc R . .
C9 C 0.0918(4) 0.58936(17) 0.2415(2) 0.0343(6) Uani 1 1 d . . .
C19 C -0.5246(4) 0.66188(16) -0.0450(2) 0.0354(6) Uani 1 1 d . . .
C8 C 0.2741(4) 0.60687(16) 0.3313(2) 0.0348(6) Uani 1 1 d . . .
C10 C 0.0780(4) 0.50094(15) 0.1931(2) 0.0342(6) Uani 1 1 d . . .
C16 C -0.1949(4) 0.65190(16) 0.12637(19) 0.0346(6) Uani 1 1 d . . .
O5 O -0.6982(2) 0.66897(12) -0.12170(13) 0.0479(5) Uani 1 1 d . . .
N1 N 0.2690(3) 0.68663(13) 0.37884(16) 0.0366(5) Uani 1 1 d . . .
H1 H 0.1529 0.7172 0.3618 0.044 Uiso 1 1 calc R . .
O1 O 0.1924(3) 0.84991(10) 0.45563(15) 0.0464(5) Uani 1 1 d . . .
O4 O 0.4128(3) 0.55273(11) 0.35317(15) 0.0457(5) Uani 1 1 d . . .
loop_
_atom_site_aniso_label
_atom_site_aniso_U_11
_atom_site_aniso_U_22
_atom_site_aniso_U_33
_atom_site_aniso_U_23
_atom_site_aniso_U_13
_atom_site_aniso_U_12
S1 0.0534(7) 0.0282(6) 0.0584(7) -0.0013(6) -0.0014(6) -0.0030(6)
O2 0.104(2) 0.0368(17) 0.0719(17) -0.0155(14) -0.0090(16) 0.0276(16)
O3 0.0543(19) 0.054(2) 0.121(3) 0.038(2) -0.0074(19) -0.0285(16)
C7 0.066(3) 0.046(3) 0.062(2) 0.016(2) -0.010(2) -0.011(2)
F1 0.166(3) 0.0579(17) 0.0530(13) -0.0162(12) 0.0093(15) 0.0341(17)
F2 0.109(3) 0.0441(17) 0.0643(15) 0.0192(12) -0.0180(15) -0.0007(14)
F3 0.0633(18) 0.091(2) 0.073(2) 0.0116(15) -0.0195(15) -0.0283(16)
S1' 0.090(4) 0.040(3) 0.057(3) 0.006(2) 0.006(3) 0.003(2)
C22 0.0579(18) 0.099(3) 0.0432(15) -0.0088(17) -0.0155(14) 0.0113(18)
C14 0.0514(18) 0.0346(19) 0.0641(18) 0.0025(15) -0.0186(15) -0.0056(15)
C12 0.0596(19) 0.0398(18) 0.0517(16) -0.0116(14) -0.0083(14) 0.0184(16)
C17 0.0340(14) 0.0332(15) 0.0440(14) -0.0030(12) 0.0017(12) 0.0048(12)
C4 0.0449(16) 0.048(2) 0.0485(15) 0.0033(15) -0.0069(14) -0.0061(14)
C11 0.0406(16) 0.0369(19) 0.0480(16) -0.0034(12) -0.0068(13) 0.0003(12)
C1 0.0424(15) 0.0353(17) 0.0395(14) 0.0011(13) 0.0018(13) -0.0053(13)
C15 0.0402(14) 0.0323(17) 0.0460(15) -0.0016(12) -0.0048(12) -0.0002(13)
C2 0.0347(15) 0.0376(17) 0.0310(12) -0.0003(12) 0.0006(12) -0.0035(12)
C3 0.0420(14) 0.0406(18) 0.0392(13) -0.0002(13) -0.0016(13) -0.0013(14)
C6 0.0562(18) 0.0380(17) 0.0448(15) -0.0083(14) 0.0056(14) -0.0096(14)
C13 0.070(2) 0.0288(17) 0.0616(17) -0.0096(14) -0.0257(16) 0.0054(17)
C18 0.0431(16) 0.0377(17) 0.0345(13) -0.0015(12) 0.0020(12) 0.0047(13)
C20 0.0344(14) 0.0388(16) 0.0433(14) 0.0036(13) 0.0038(12) 0.0073(13)
C5 0.0497(17) 0.053(2) 0.0444(15) -0.0043(15) -0.0078(14) -0.0146(15)
N2 0.0345(11) 0.0324(13) 0.0392(11) 0.0002(10) -0.0019(9) -0.0006(11)
C21 0.0411(14) 0.0282(15) 0.0374(12) -0.0006(12) 0.0036(12) 0.0029(13)
C9 0.0344(14) 0.0292(16) 0.0392(14) -0.0015(12) 0.0021(12) -0.0053(12)
C19 0.0339(14) 0.0347(16) 0.0375(13) 0.0083(12) -0.0001(12) -0.0023(13)
C8 0.0417(16) 0.0257(16) 0.0370(13) 0.0039(12) 0.0007(12) -0.0024(14)
C10 0.0362(15) 0.0286(15) 0.0377(14) 0.0024(12) -0.0056(12) 0.0051(13)
C16 0.0408(15) 0.0253(14) 0.0378(13) -0.0008(11) -0.0015(12) 0.0001(13)
O5 0.0423(10) 0.0568(13) 0.0445(10) -0.0007(9) -0.0071(8) 0.0099(9)
N1 0.0379(11) 0.0288(13) 0.0430(11) -0.0064(10) -0.0086(10) 0.0042(10)
O1 0.0421(10) 0.0322(11) 0.0651(11) -0.0059(9) 0.0002(9) 0.0012(8)
O4 0.0501(11) 0.0288(11) 0.0579(11) -0.0025(9) -0.0121(9) 0.0038(10)
loop_
_atom_type_symbol
_atom_type_description
_atom_type_scat_dispersion_real
_atom_type_scat_dispersion_imag
_atom_type_scat_source
C C 0.0033 0.0016 'International Tables Vol C Tables 4.2.6.8 and 6.1.1.4'
H H 0.0000 0.0000 'International Tables Vol C Tables 4.2.6.8 and 6.1.1.4'
F F 0.0171 0.0103 'International Tables Vol C Tables 4.2.6.8 and 6.1.1.4'
N N 0.0061 0.0033 'International Tables Vol C Tables 4.2.6.8 and 6.1.1.4'
O O 0.0106 0.0060 'International Tables Vol C Tables 4.2.6.8 and 6.1.1.4'
S S 0.1246 0.1234 'International Tables Vol C Tables 4.2.6.8 and 6.1.1.4'
loop_
_geom_angle_atom_site_label_1
_geom_angle_atom_site_label_2
_geom_angle_atom_site_label_3
_geom_angle
O2 S1 O3 122.0(2)
O2 S1 O1 110.30(14)
O3 S1 O1 110.71(15)
O2 S1 C7 107.9(2)
O3 S1 C7 105.9(2)
O1 S1 C7 96.82(14)
F1 C7 F2 110.7(4)
F1 C7 F3 110.1(4)
F2 C7 F3 107.0(4)
F1 C7 S1 111.7(3)
F2 C7 S1 109.2(3)
F3 C7 S1 108.1(3)
O2' S1' O3' 120.9(10)
O2' S1' O1 109.5(10)
O3' S1' O1 112.2(6)
O2' S1' C7' 109.7(9)
O3' S1' C7' 106.2(7)
O1 S1' C7' 95.2(6)
F1' C7' F2' 110.1(14)
F1' C7' F3' 116.5(13)
F2' C7' F3' 110.8(13)
F1' C7' S1' 108.0(11)
F2' C7' S1' 105.6(11)
F3' C7' S1' 105.1(8)
O5 C22 H22A 109.5
O5 C22 H22B 109.5
H22A C22 H22B 109.5
O5 C22 H22C 109.5
H22A C22 H22C 109.5
H22B C22 H22C 109.5
C13 C14 C15 120.6(3)
C13 C14 H14 119.7
C15 C14 H14 119.7
C13 C12 C11 119.9(3)
C13 C12 H12 120.1
C11 C12 H12 120.1
C18 C17 C16 120.4(2)
C18 C17 H17 119.8
C16 C17 H17 119.8
C5 C4 C3 122.1(3)
C5 C4 H4 119.0
C3 C4 H4 119.0
C10 C11 C12 120.1(2)
C10 C11 H11 119.9
C12 C11 H11 119.9
C6 C1 C2 123.1(2)
C6 C1 O1 119.6(2)
C2 C1 O1 117.3(2)
C14 C15 C10 120.1(3)
C14 C15 H15 119.9
C10 C15 H15 119.9
C1 C2 C3 117.3(2)
C1 C2 N1 119.5(2)
C3 C2 N1 123.1(2)
C4 C3 C2 119.7(3)
C4 C3 H3 120.2
C2 C3 H3 120.2
C1 C6 C5 118.7(3)
C1 C6 H6 120.6
C5 C6 H6 120.6
C14 C13 C12 120.0(3)
C14 C13 H13 120.0
C12 C13 H13 120.0
C19 C18 C17 120.1(2)
C19 C18 H18 120.0
C17 C18 H18 120.0
C21 C20 C19 119.8(2)
C21 C20 H20 120.1
C19 C20 H20 120.1
C4 C5 C6 119.1(2)
C4 C5 H5 120.4
C6 C5 H5 120.4
C9 N2 C16 123.4(2)
C20 C21 C16 121.1(2)
C20 C21 H21 119.5
C16 C21 H21 119.5
N2 C9 C10 128.1(2)
N2 C9 C8 115.4(2)
C10 C9 C8 116.5(2)
O5 C19 C18 124.6(2)
O5 C19 C20 115.5(2)
C18 C19 C20 119.9(2)
O4 C8 N1 125.1(2)
O4 C8 C9 121.1(2)
N1 C8 C9 113.8(2)
C11 C10 C15 119.3(2)
C11 C10 C9 121.3(2)
C15 C10 C9 119.4(2)
C21 C16 C17 118.5(2)
C21 C16 N2 116.9(2)
C17 C16 N2 124.4(2)
C19 O5 C22 117.77(19)
C8 N1 C2 128.26(19)
C8 N1 H1 115.9
C2 N1 H1 115.9
C1 O1 S1 123.22(15)
C1 O1 S1' 109.2(2)
S1 O1 S1' 28.91(15)
loop_
_geom_bond_atom_site_label_1
_geom_bond_atom_site_label_2
_geom_bond_distance
S1 O2 1.392(3)
S1 O3 1.428(3)
S1 O1 1.550(2)
S1 C7 1.834(4)
C7 F1 1.284(5)
C7 F2 1.318(4)
C7 F3 1.363(5)
S1' O2' 1.362(9)
S1' O3' 1.446(8)
S1' O1 1.749(5)
S1' C7' 1.825(9)
C7' F1' 1.267(11)
C7' F2' 1.316(10)
C7' F3' 1.364(10)
C22 O5 1.428(3)
C22 H22A 0.9800
C22 H22B 0.9800
C22 H22C 0.9800
C14 C13 1.374(4)
C14 C15 1.377(4)
C14 H14 0.9500
C12 C13 1.380(4)
C12 C11 1.392(3)
C12 H12 0.9500
C17 C18 1.389(3)
C17 C16 1.391(3)
C17 H17 0.9500
C4 C5 1.373(4)
C4 C3 1.378(3)
C4 H4 0.9500
C11 C10 1.386(3)
C11 H11 0.9500
C1 C6 1.380(3)
C1 C2 1.382(3)
C1 O1 1.431(3)
C15 C10 1.392(3)
C15 H15 0.9500
C2 C3 1.400(3)
C2 N1 1.408(3)
C3 H3 0.9500
C6 C5 1.386(4)
C6 H6 0.9500
C13 H13 0.9500
C18 C19 1.380(3)
C18 H18 0.9500
C20 C21 1.375(3)
C20 C19 1.386(3)
C20 H20 0.9500
C5 H5 0.9500
N2 C9 1.281(3)
N2 C16 1.428(3)
C21 C16 1.391(3)
C21 H21 0.9500
C9 C10 1.486(3)
C9 C8 1.524(3)
C19 O5 1.369(3)
C8 O4 1.226(3)
C8 N1 1.355(3)
N1 H1 0.8800
