#------------------------------------------------------------------------------
#$Date: 2016-02-18 17:37:37 +0200 (Thu, 18 Feb 2016) $
#$Revision: 176729 $
#$URL: svn://www.crystallography.net/cod/cif/1/51/23/1512369.cif $
#------------------------------------------------------------------------------
#
# This file is available in the Crystallography Open Database (COD),
# http://www.crystallography.net/
#
# All data on this site have been placed in the public domain by the
# contributors.
#
data_1512369
loop_
_publ_author_name
'Race, Nicholas J.'
'Bower, John F.'
_publ_section_title
;
 Palladium catalyzed cyclizations of oxime esters with 1,2-disubstituted
 alkenes: synthesis of dihydropyrroles.
;
_journal_issue                   17
_journal_name_full               'Organic letters'
_journal_page_first              4616
_journal_page_last               4619
_journal_paper_doi               10.1021/ol4023112
_journal_volume                  15
_journal_year                    2013
_chemical_formula_moiety         'C31 H29 N O2 S'
_chemical_formula_sum            'C31 H29 N O2 S'
_chemical_formula_weight         479.61
_chemical_name_systematic
;
 ?
;
_space_group_IT_number           14
_symmetry_cell_setting           monoclinic
_symmetry_space_group_name_Hall  '-P 2ybc'
_symmetry_space_group_name_H-M   'P 1 21/c 1'
_atom_sites_solution_hydrogens   geom
_atom_sites_solution_primary     direct
_atom_sites_solution_secondary   difmap
_audit_creation_method           SHELXL-2012
_cell_angle_alpha                90
_cell_angle_beta                 99.720(8)
_cell_angle_gamma                90
_cell_formula_units_Z            4
_cell_length_a                   6.0997(18)
_cell_length_b                   14.647(4)
_cell_length_c                   27.856(7)
_cell_measurement_reflns_used    1115
_cell_measurement_temperature    100(2)
_cell_measurement_theta_max      35.00
_cell_measurement_theta_min      3.22
_cell_volume                     2453.0(12)
_computing_cell_refinement       'Bruker Apex2'
_computing_data_collection       'Bruker Apex2'
_computing_data_reduction        'Bruker SAINT V7.68A'
_computing_molecular_graphics    'Bruker ShelxLE (Huebscle, 2013)'
_computing_structure_refinement  'SHELXL-2013 (Sheldrick, 2008)'
_computing_structure_solution    'SHELXS-97 (Sheldrick, 2008)'
_diffrn_ambient_temperature      100(2)
_diffrn_measured_fraction_theta_full 0.517
_diffrn_measured_fraction_theta_max 0.548
_diffrn_measurement_device_type  'Bruker Microstar with CCD area detector'
_diffrn_measurement_method       'phi and omega scans'
_diffrn_radiation_source         'rotating anode'
_diffrn_radiation_type           CuK\a
_diffrn_radiation_wavelength     1.54178
_diffrn_reflns_av_unetI/netI     0.1616
_diffrn_reflns_Laue_measured_fraction_full 0.517
_diffrn_reflns_Laue_measured_fraction_max 0.548
_diffrn_reflns_limit_h_max       5
_diffrn_reflns_limit_h_min       -5
_diffrn_reflns_limit_k_max       0
_diffrn_reflns_limit_k_min       -16
_diffrn_reflns_limit_l_max       3
_diffrn_reflns_limit_l_min       -32
_diffrn_reflns_number            2299
_diffrn_reflns_point_group_measured_fraction_full 0.517
_diffrn_reflns_point_group_measured_fraction_max 0.548
_diffrn_reflns_theta_full        67.679
_diffrn_reflns_theta_max         65.757
_diffrn_reflns_theta_min         3.219
_exptl_absorpt_coefficient_mu    1.395
_exptl_absorpt_correction_T_max  0.8642
_exptl_absorpt_correction_T_min  0.5929
_exptl_absorpt_correction_type   multi-scan
_exptl_absorpt_process_details   'SADABS V2008/1'
_exptl_crystal_colour            colourless
_exptl_crystal_density_diffrn    1.299
_exptl_crystal_description       needle
_exptl_crystal_F_000             1016
_exptl_crystal_size_max          0.11
_exptl_crystal_size_mid          0.01
_exptl_crystal_size_min          0.01
_refine_diff_density_max         0.468
_refine_diff_density_min         -0.685
_refine_diff_density_rms         0.115
_refine_ls_extinction_method     none
_refine_ls_goodness_of_fit_ref   1.162
_refine_ls_hydrogen_treatment    constr
_refine_ls_matrix_type           full
_refine_ls_number_parameters     318
_refine_ls_number_reflns         2299
_refine_ls_number_restraints     0
_refine_ls_restrained_S_all      1.162
_refine_ls_R_factor_all          0.2275
_refine_ls_R_factor_gt           0.1275
_refine_ls_shift/su_max          0.001
_refine_ls_shift/su_mean         0.000
_refine_ls_structure_factor_coef Fsqd
_refine_ls_weighting_details
;
 w=1/[\s^2^(Fo^2^)+(0.2000P)^2^]
 where P=(Fo^2^+2Fc^2^)/3
;
_refine_ls_weighting_scheme      calc
_refine_ls_wR_factor_gt          0.2853
_refine_ls_wR_factor_ref         0.3513
_reflns_Friedel_coverage         0.000
_reflns_number_gt                1203
_reflns_number_total             2299
_reflns_threshold_expression     'I > 2\s(I)'
_cod_data_source_file            ol4023112_si_002.cif
_cod_data_source_block           NR0662
_cod_original_sg_symbol_H-M      'P 21/c'
_cod_database_code               1512369
#BEGIN Tags that were not found in dictionaries:
_shelx_space_group_comment
;
The symmetry employed for this shelxl refinement is uniquely defined
by the following loop, which should always be used as a source of
symmetry information in preference to the above space-group names.
They are only intended as comments.
;
_shelxl_version_number           2012-9
_shelx_res_file
;
TITL twin4 in P2(1)              New: P21/c
CELL  1.54178    6.0997   14.6470   27.8560    90.000    99.720    90.000
ZERR     4.00    0.0018    0.0040    0.0070     0.000     0.008     0.000
LATT 1
SYMM             - X ,    0.50000 + Y ,    0.50000 - Z
SFAC C  H  N  O  S
UNIT 124 116 4 8 4
LIST 4
L.S. 5
TEMP -173.15
ACTA
MERG 0
BOND $H
FMAP 2
PLAN 10
CONF
WGHT    0.200000
BASF   0.43811
FVAR       0.48180
S1    5    1.273881    0.819266    0.372068    11.00000    0.11848    0.04873 =
         0.03633    0.00071    0.01229    0.00183
O1    4    1.441952    0.769307    0.351408    11.00000    0.13009    0.06629 =
         0.03758   -0.00979    0.01506    0.00436
O2    4    1.342919    0.895074    0.403505    11.00000    0.06377    0.04954 =
         0.04712    0.00038    0.01896    0.00551
N2    3    1.140958    0.749993    0.403365    11.00000    0.14651    0.03002 =
         0.02764   -0.00137    0.01045   -0.01126
C1    1    1.099944    0.655000    0.384010    11.00000    0.07691    0.05323 =
         0.03556   -0.00500    0.00843    0.01506
AFIX  13
H1    2    1.238495    0.628262    0.375102    11.00000   -1.20000
AFIX   0
C2    1    1.033921    0.604607    0.428818    11.00000    0.04904    0.05887 =
         0.04210   -0.00743    0.00172    0.01258
AFIX  13
H2    2    0.878763    0.620990    0.432730    11.00000   -1.20000
AFIX   0
C3    1    1.203497    0.644955    0.470894    11.00000    0.15180    0.03734 =
         0.03100    0.00097   -0.00657   -0.01074
AFIX  23
H3A   2    1.349640    0.614409    0.473099    11.00000   -1.20000
H3B   2    1.150440    0.637867    0.502370    11.00000   -1.20000
AFIX   0
C4    1    1.220970    0.747808    0.457758    11.00000    0.11604    0.04711 =
         0.03696   -0.00058    0.00033   -0.00530
AFIX  13
H4    2    1.379716    0.767968    0.465202    11.00000   -1.20000
AFIX   0
C5    1    0.910325    0.655639    0.339837    11.00000    0.12603    0.04722 =
         0.02976    0.00619   -0.00608   -0.01671
AFIX  43
H5    2    0.767045    0.677026    0.343502    11.00000   -1.20000
AFIX   0
C6    1    0.946260    0.626062    0.296012    11.00000    0.06663    0.04168 =
         0.03504   -0.00002   -0.00532    0.01201
AFIX  43
H6    2    1.085968    0.599405    0.293600    11.00000   -1.20000
AFIX   0
C7    1    0.773393    0.633675    0.250748    11.00000    0.12563    0.04875 =
         0.03398   -0.00815    0.00269   -0.02961
C8    1    0.837754    0.599072    0.207349    11.00000    0.07212    0.05369 =
         0.04683   -0.01080    0.00853    0.00679
AFIX  43
H8    2    0.979619    0.571868    0.208013    11.00000   -1.20000
AFIX   0
C9    1    0.686886    0.606199    0.163844    11.00000    0.15632    0.05112 =
         0.03452   -0.01049    0.00692   -0.01120
AFIX  43
H9    2    0.721268    0.579394    0.134960    11.00000   -1.20000
AFIX   0
C10   1    0.487933    0.651982    0.162536    11.00000    0.17890    0.04255 =
         0.04151   -0.00885   -0.00561   -0.02400
AFIX  43
H10   2    0.394142    0.662124    0.132145    11.00000   -1.20000
AFIX   0
C11   1    0.422115    0.683934    0.205840    11.00000    0.08810    0.04598 =
         0.04480   -0.00267    0.00463    0.02005
AFIX  43
H11   2    0.279325    0.710337    0.205098    11.00000   -1.20000
AFIX   0
C12   1    0.570131    0.676101    0.249708    11.00000    0.13174    0.06017 =
         0.03710   -0.00746    0.02241   -0.00538
AFIX  43
H12   2    0.531193    0.699925    0.278855    11.00000   -1.20000
AFIX   0
C13   1    1.056527    0.499513    0.423074    11.00000    0.15711    0.07714 =
         0.01864   -0.00639    0.00386   -0.01868
C14   1    0.868349    0.454105    0.402405    11.00000    0.09604    0.06888 =
         0.03431   -0.00231    0.01319    0.01579
AFIX  43
H14   2    0.735769    0.488557    0.393488    11.00000   -1.20000
AFIX   0
C15   1    0.858826    0.359861    0.393546    11.00000    0.13461    0.06679 =
         0.03979    0.00003    0.00984   -0.03082
AFIX  43
H15   2    0.725220    0.329909    0.379466    11.00000   -1.20000
AFIX   0
C16   1    1.064840    0.311755    0.407216    11.00000    0.16908    0.05031 =
         0.04001   -0.01113    0.01057    0.00267
AFIX  43
H16   2    1.071252    0.247681    0.402346    11.00000   -1.20000
AFIX   0
C17   1    1.252358    0.358722    0.427339    11.00000    0.14123    0.03902 =
         0.05912    0.00466    0.01780    0.00714
AFIX  43
H17   2    1.387041    0.325359    0.435537    11.00000   -1.20000
AFIX   0
C18   1    1.258053    0.453004    0.436608    11.00000    0.06348    0.08343 =
         0.06792    0.00818   -0.00891   -0.01185
AFIX  43
H18   2    1.390365    0.483340    0.451151    11.00000   -1.20000
AFIX   0
C19   1    1.070632    0.813313    0.484314    11.00000    0.11234    0.03452 =
         0.02736    0.00681    0.00238   -0.00336
C20   1    1.187965    0.854277    0.526904    11.00000    0.11192    0.04617 =
         0.03875    0.00449    0.01614   -0.01357
AFIX  43
H20   2    1.340676    0.840337    0.537348    11.00000   -1.20000
AFIX   0
C21   1    1.082994    0.913807    0.553137    11.00000    0.13541    0.03747 =
         0.03758   -0.00249    0.01452   -0.00565
AFIX  43
H21   2    1.159237    0.942459    0.581750    11.00000   -1.20000
AFIX   0
C22   1    0.850741    0.931133    0.535335    11.00000    0.09575    0.04320 =
         0.04293    0.00605    0.04282    0.01461
AFIX  43
H22   2    0.767644    0.970180    0.552754    11.00000   -1.20000
AFIX   0
C23   1    0.752773    0.890725    0.493269    11.00000    0.09062    0.06024 =
         0.04111    0.00491    0.00107    0.00230
AFIX  43
H23   2    0.600358    0.902993    0.481362    11.00000   -1.20000
AFIX   0
C24   1    0.867057    0.832075    0.466961    11.00000    0.18091    0.04629 =
         0.02319    0.00761    0.01213    0.00614
AFIX  43
H24   2    0.796398    0.806570    0.436951    11.00000   -1.20000
AFIX   0
C25   1    1.068487    0.853949    0.323014    11.00000    0.08162    0.03084 =
         0.05004    0.00291    0.01598    0.00222
C26   1    0.881530    0.894806    0.332413    11.00000    0.10507    0.03036 =
         0.04210    0.00484    0.00435   -0.01329
AFIX  43
H26   2    0.862384    0.904075    0.365206    11.00000   -1.20000
AFIX   0
C27   1    0.713750    0.923975    0.293916    11.00000    0.05456    0.03820 =
         0.05348   -0.00580    0.01775    0.00535
AFIX  43
H27   2    0.576266    0.948235    0.299782    11.00000   -1.20000
AFIX   0
C28   1    0.763118    0.914822    0.245732    11.00000    0.12453    0.02934 =
         0.03730   -0.00462   -0.00669   -0.01812
C29   1    0.951746    0.875906    0.236549    11.00000    0.15676    0.04366 =
         0.04339   -0.00682    0.02891    0.02115
AFIX  43
H29   2    0.977970    0.868044    0.204143    11.00000   -1.20000
AFIX   0
C30   1    1.106234    0.847742    0.276091    11.00000    0.09130    0.05383 =
         0.03259   -0.00209    0.02006   -0.00102
AFIX  43
H30   2    1.243670    0.823173    0.270388    11.00000   -1.20000
AFIX   0
C31   1    0.575284    0.945435    0.203814    11.00000    0.06356    0.06179 =
         0.04919    0.00823    0.00694   -0.00834
AFIX 137
H31A  2    0.533536    1.008721    0.209284    11.00000   -1.50000
H31B  2    0.445431    0.905764    0.203153    11.00000   -1.50000
H31C  2    0.628688    0.941083    0.172628    11.00000   -1.50000
AFIX   0
HKLF 5 1  1.0000  0.0000  0.0000  0.0000 -1.0000  0.0000 -1.0000  0.0000 -1.0000

REM  twin4 in P2(1)              New: P21/c
REM R1 =  0.1275 for    1203 Fo > 4sig(Fo)  and  0.2275 for all    2299 data
REM    318 parameters refined using      0 restraints

END

WGHT      0.2000      0.0000

REM Highest difference peak  0.468,  deepest hole -0.685,  1-sigma level  0.115
Q1    1   1.4439  0.8250  0.3447  11.00000  0.05    0.47
Q2    1   1.5334  0.9189  0.3782  11.00000  0.05    0.40
Q3    1   1.0716  0.8189  0.4035  11.00000  0.05    0.35
Q4    1   0.5944  1.0430  0.1427  11.00000  0.05    0.33
Q5    1   0.6124  0.8159  0.4255  11.00000  0.05    0.32
Q6    1   0.8611  0.9898  0.1870  11.00000  0.05    0.32
Q7    1   0.5433  0.8799  0.5263  11.00000  0.05    0.32
Q8    1   0.7943  0.8279  0.3674  11.00000  0.05    0.32
Q9    1   1.1679  0.9033  0.4410  11.00000  0.05    0.32
Q10   1   1.2761  0.7573  0.3819  11.00000  0.05    0.31
;
_shelx_res_checksum              73907
#END Tags that were not found in dictionaries
loop_
_space_group_symop_operation_xyz
'x, y, z'
'-x, y+1/2, -z+1/2'
'-x, -y, -z'
'x, -y-1/2, z-1/2'
loop_
_atom_site_label
_atom_site_type_symbol
_atom_site_fract_x
_atom_site_fract_y
_atom_site_fract_z
_atom_site_U_iso_or_equiv
_atom_site_adp_type
_atom_site_occupancy
_atom_site_site_symmetry_order
_atom_site_calc_flag
_atom_site_refinement_flags_posn
_atom_site_refinement_flags_adp
S1 S 1.2739(11) 0.8193(3) 0.37207(11) 0.068(2) Uani 1 1 d . .
O1 O 1.442(2) 0.7693(7) 0.3514(3) 0.078(6) Uani 1 1 d . .
O2 O 1.343(2) 0.8951(6) 0.4035(3) 0.052(4) Uani 1 1 d . .
N2 N 1.141(3) 0.7500(7) 0.4034(3) 0.069(6) Uani 1 1 d . .
C1 C 1.100(3) 0.6550(9) 0.3840(4) 0.055(7) Uani 1 1 d . .
H1 H 1.2385 0.6283 0.3751 0.066 Uiso 1 1 calc R U
C2 C 1.034(3) 0.6046(9) 0.4288(4) 0.051(6) Uani 1 1 d . .
H2 H 0.8788 0.6210 0.4327 0.061 Uiso 1 1 calc R U
C3 C 1.203(4) 0.6450(8) 0.4709(4) 0.076(8) Uani 1 1 d . .
H3A H 1.3496 0.6144 0.4731 0.091 Uiso 1 1 calc R U
H3B H 1.1504 0.6379 0.5024 0.091 Uiso 1 1 calc R U
C4 C 1.221(4) 0.7478(9) 0.4578(4) 0.068(8) Uani 1 1 d . .
H4 H 1.3797 0.7680 0.4652 0.082 Uiso 1 1 calc R U
C5 C 0.910(4) 0.6556(8) 0.3398(4) 0.070(8) Uani 1 1 d . .
H5 H 0.7670 0.6770 0.3435 0.084 Uiso 1 1 calc R U
C6 C 0.946(3) 0.6261(8) 0.2960(4) 0.049(6) Uani 1 1 d . .
H6 H 1.0860 0.5994 0.2936 0.059 Uiso 1 1 calc R U
C7 C 0.773(5) 0.6337(11) 0.2507(5) 0.071(9) Uani 1 1 d . .
C8 C 0.838(4) 0.5991(9) 0.2073(4) 0.058(7) Uani 1 1 d . .
H8 H 0.9796 0.5719 0.2080 0.069 Uiso 1 1 calc R U
C9 C 0.687(4) 0.6062(11) 0.1638(5) 0.082(10) Uani 1 1 d . .
H9 H 0.7213 0.5794 0.1350 0.098 Uiso 1 1 calc R U
C10 C 0.488(5) 0.6520(10) 0.1625(5) 0.090(11) Uani 1 1 d . .
H10 H 0.3941 0.6621 0.1321 0.109 Uiso 1 1 calc R U
C11 C 0.422(4) 0.6839(8) 0.2058(4) 0.060(7) Uani 1 1 d . .
H11 H 0.2793 0.7103 0.2051 0.072 Uiso 1 1 calc R U
C12 C 0.570(5) 0.6761(11) 0.2497(5) 0.075(9) Uani 1 1 d . .
H12 H 0.5312 0.6999 0.2789 0.090 Uiso 1 1 calc R U
C13 C 1.057(5) 0.4995(12) 0.4231(5) 0.086(10) Uani 1 1 d . .
C14 C 0.868(4) 0.4541(11) 0.4024(4) 0.066(8) Uani 1 1 d . .
H14 H 0.7358 0.4886 0.3935 0.079 Uiso 1 1 calc R U
C15 C 0.859(5) 0.3599(12) 0.3935(5) 0.081(9) Uani 1 1 d . .
H15 H 0.7252 0.3299 0.3795 0.097 Uiso 1 1 calc R U
C16 C 1.065(5) 0.3118(12) 0.4072(5) 0.087(11) Uani 1 1 d . .
H16 H 1.0713 0.2477 0.4023 0.105 Uiso 1 1 calc R U
C17 C 1.252(4) 0.3587(10) 0.4273(5) 0.080(9) Uani 1 1 d . .
H17 H 1.3870 0.3254 0.4355 0.096 Uiso 1 1 calc R U
C18 C 1.258(4) 0.4530(13) 0.4366(6) 0.074(8) Uani 1 1 d . .
H18 H 1.3904 0.4833 0.4512 0.089 Uiso 1 1 calc R U
C19 C 1.071(4) 0.8133(10) 0.4843(5) 0.059(8) Uani 1 1 d . .
C20 C 1.188(4) 0.8543(9) 0.5269(4) 0.065(8) Uani 1 1 d . .
H20 H 1.3407 0.8403 0.5373 0.078 Uiso 1 1 calc R U
C21 C 1.083(5) 0.9138(10) 0.5531(5) 0.070(9) Uani 1 1 d . .
H21 H 1.1592 0.9425 0.5818 0.084 Uiso 1 1 calc R U
C22 C 0.851(4) 0.9311(10) 0.5353(5) 0.057(8) Uani 1 1 d . .
H22 H 0.7676 0.9702 0.5528 0.068 Uiso 1 1 calc R U
C23 C 0.753(4) 0.8907(9) 0.4933(5) 0.065(7) Uani 1 1 d . .
H23 H 0.6004 0.9030 0.4814 0.078 Uiso 1 1 calc R U
C24 C 0.867(5) 0.8321(11) 0.4670(5) 0.084(10) Uani 1 1 d . .
H24 H 0.7964 0.8066 0.4370 0.101 Uiso 1 1 calc R U
C25 C 1.068(4) 0.8539(9) 0.3230(5) 0.054(7) Uani 1 1 d . .
C26 C 0.882(4) 0.8948(9) 0.3324(5) 0.060(8) Uani 1 1 d . .
H26 H 0.8624 0.9041 0.3652 0.072 Uiso 1 1 calc R U
C27 C 0.714(3) 0.9240(8) 0.2939(4) 0.048(6) Uani 1 1 d . .
H27 H 0.5763 0.9482 0.2998 0.057 Uiso 1 1 calc R U
C28 C 0.763(5) 0.9148(9) 0.2457(5) 0.066(9) Uani 1 1 d . .
C29 C 0.952(5) 0.8759(10) 0.2365(5) 0.080(9) Uani 1 1 d . .
H29 H 0.9780 0.8680 0.2041 0.096 Uiso 1 1 calc R U
C30 C 1.106(4) 0.8477(9) 0.2761(4) 0.058(7) Uani 1 1 d . .
H30 H 1.2437 0.8232 0.2704 0.070 Uiso 1 1 calc R U
C31 C 0.575(3) 0.9454(9) 0.2038(4) 0.058(7) Uani 1 1 d . .
H31A H 0.5335 1.0087 0.2093 0.088 Uiso 1 1 calc R U
H31B H 0.4454 0.9058 0.2032 0.088 Uiso 1 1 calc R U
H31C H 0.6287 0.9411 0.1726 0.088 Uiso 1 1 calc R U
loop_
_atom_site_aniso_label
_atom_site_aniso_U_11
_atom_site_aniso_U_22
_atom_site_aniso_U_33
_atom_site_aniso_U_23
_atom_site_aniso_U_13
_atom_site_aniso_U_12
S1 0.118(6) 0.049(2) 0.0363(16) 0.0007(16) 0.012(3) 0.002(4)
O1 0.130(17) 0.066(7) 0.038(5) -0.010(4) 0.015(7) 0.004(10)
O2 0.064(12) 0.050(6) 0.047(5) 0.000(4) 0.019(6) 0.006(7)
N2 0.147(19) 0.030(6) 0.028(5) -0.001(4) 0.010(8) -0.011(10)
C1 0.08(2) 0.053(9) 0.036(6) -0.005(6) 0.008(9) 0.015(11)
C2 0.049(18) 0.059(9) 0.042(7) -0.007(6) 0.002(10) 0.013(11)
C3 0.15(3) 0.037(8) 0.031(6) 0.001(5) -0.007(11) -0.011(13)
C4 0.12(2) 0.047(8) 0.037(7) -0.001(6) 0.000(10) -0.005(13)
C5 0.13(2) 0.047(8) 0.030(6) 0.006(6) -0.006(10) -0.017(12)
C6 0.07(2) 0.042(8) 0.035(6) 0.000(5) -0.005(9) 0.012(11)
C7 0.13(3) 0.049(11) 0.034(7) -0.008(7) 0.003(12) -0.030(14)
C8 0.07(2) 0.054(9) 0.047(8) -0.011(6) 0.009(10) 0.007(12)
C9 0.16(3) 0.051(12) 0.035(8) -0.010(7) 0.007(13) -0.011(16)
C10 0.18(4) 0.043(11) 0.042(8) -0.009(7) -0.006(14) -0.024(15)
C11 0.09(2) 0.046(8) 0.045(7) -0.003(6) 0.005(10) 0.020(12)
C12 0.13(3) 0.060(12) 0.037(8) -0.007(7) 0.022(13) -0.005(16)
C13 0.16(3) 0.077(13) 0.019(7) -0.006(7) 0.004(12) -0.019(18)
C14 0.10(2) 0.069(11) 0.034(7) -0.002(7) 0.013(11) 0.016(14)
C15 0.13(3) 0.067(13) 0.040(8) 0.000(8) 0.010(13) -0.031(17)
C16 0.17(3) 0.050(11) 0.040(8) -0.011(7) 0.011(13) 0.003(17)
C17 0.14(3) 0.039(9) 0.059(9) 0.005(7) 0.018(13) 0.007(14)
C18 0.06(2) 0.083(14) 0.068(11) 0.008(10) -0.009(12) -0.012(15)
C19 0.11(3) 0.035(9) 0.027(7) 0.007(6) 0.002(11) -0.003(13)
C20 0.11(2) 0.046(9) 0.039(7) 0.004(6) 0.016(11) -0.014(12)
C21 0.14(3) 0.037(9) 0.038(8) -0.002(6) 0.015(12) -0.006(15)
C22 0.10(3) 0.043(9) 0.043(9) 0.006(7) 0.043(11) 0.015(13)
C23 0.09(2) 0.060(10) 0.041(8) 0.005(7) 0.001(11) 0.002(14)
C24 0.18(3) 0.046(10) 0.023(7) 0.008(7) 0.012(13) 0.006(16)
C25 0.08(2) 0.031(8) 0.050(8) 0.003(6) 0.016(11) 0.002(12)
C26 0.11(2) 0.030(9) 0.042(7) 0.005(6) 0.004(12) -0.013(13)
C27 0.055(19) 0.038(8) 0.053(8) -0.006(6) 0.018(10) 0.005(11)
C28 0.12(3) 0.029(9) 0.037(8) -0.005(6) -0.007(11) -0.018(13)
C29 0.16(3) 0.044(10) 0.043(8) -0.007(7) 0.029(13) 0.021(15)
C30 0.09(2) 0.054(9) 0.033(6) -0.002(6) 0.020(10) -0.001(12)
C31 0.06(2) 0.062(9) 0.049(8) 0.008(7) 0.007(10) -0.008(12)
loop_
_atom_type_symbol
_atom_type_description
_atom_type_scat_dispersion_real
_atom_type_scat_dispersion_imag
_atom_type_scat_source
C C 0.0181 0.0091 'International Tables Vol C Tables 4.2.6.8 and 6.1.1.4'
H H 0.0000 0.0000 'International Tables Vol C Tables 4.2.6.8 and 6.1.1.4'
N N 0.0311 0.0180 'International Tables Vol C Tables 4.2.6.8 and 6.1.1.4'
O O 0.0492 0.0322 'International Tables Vol C Tables 4.2.6.8 and 6.1.1.4'
S S 0.3331 0.5567 'International Tables Vol C Tables 4.2.6.8 and 6.1.1.4'
loop_
_geom_angle_atom_site_label_1
_geom_angle_atom_site_label_2
_geom_angle_atom_site_label_3
_geom_angle
O2 S1 O1 118.5(8)
O2 S1 N2 106.0(5)
O1 S1 N2 110.1(7)
O2 S1 C25 110.3(6)
O1 S1 C25 107.1(8)
N2 S1 C25 103.9(10)
C1 N2 C4 110.3(8)
C1 N2 S1 116.8(10)
C4 N2 S1 116.2(11)
N2 C1 C5 109.8(11)
N2 C1 C2 101.6(10)
C5 C1 C2 112.4(16)
N2 C1 H1 110.9
C5 C1 H1 110.9
C2 C1 H1 110.9
C3 C2 C13 113.4(14)
C3 C2 C1 101.3(14)
C13 C2 C1 110.3(12)
C3 C2 H2 110.5
C13 C2 H2 110.5
C1 C2 H2 110.5
C2 C3 C4 104.8(11)
C2 C3 H3A 110.8
C4 C3 H3A 110.8
C2 C3 H3B 110.8
C4 C3 H3B 110.8
H3A C3 H3B 108.9
N2 C4 C3 103.4(9)
N2 C4 C19 109.8(13)
C3 C4 C19 113.9(15)
N2 C4 H4 109.8
C3 C4 H4 109.8
C19 C4 H4 109.8
C6 C5 C1 120.4(19)
C6 C5 H5 119.8
C1 C5 H5 119.8
C5 C6 C7 122.5(19)
C5 C6 H6 118.8
C7 C6 H6 118.8
C12 C7 C8 121.1(17)
C12 C7 C6 123.3(16)
C8 C7 C6 115(2)
C9 C8 C7 118(2)
C9 C8 H8 120.9
C7 C8 H8 120.9
C10 C9 C8 120.4(17)
C10 C9 H9 119.8
C8 C9 H9 119.8
C9 C10 C11 120.9(18)
C9 C10 H10 119.6
C11 C10 H10 119.6
C12 C11 C10 119(2)
C12 C11 H11 120.5
C10 C11 H11 120.5
C7 C12 C11 120.0(16)
C7 C12 H12 120.0
C11 C12 H12 120.0
C14 C13 C18 120.9(17)
C14 C13 C2 116(2)
C18 C13 C2 123(2)
C13 C14 C15 124(2)
C13 C14 H14 118.0
C15 C14 H14 118.0
C14 C15 C16 115(2)
C14 C15 H15 122.3
C16 C15 H15 122.3
C17 C16 C15 119.7(17)
C17 C16 H16 120.2
C15 C16 H16 120.2
C16 C17 C18 124(2)
C16 C17 H17 117.9
C18 C17 H17 117.9
C13 C18 C17 116(2)
C13 C18 H18 122.1
C17 C18 H18 122.1
C24 C19 C20 123(2)
C24 C19 C4 123.4(16)
C20 C19 C4 113(2)
C21 C20 C19 120(2)
C21 C20 H20 119.9
C19 C20 H20 119.9
C20 C21 C22 116.8(17)
C20 C21 H21 121.6
C22 C21 H21 121.6
C23 C22 C21 118.9(18)
C23 C22 H22 120.5
C21 C22 H22 120.5
C22 C23 C24 123(2)
C22 C23 H23 118.7
C24 C23 H23 118.7
C19 C24 C23 118.2(18)
C19 C24 H24 120.9
C23 C24 H24 120.9
C26 C25 C30 119.9(18)
C26 C25 S1 119.3(12)
C30 C25 S1 120.6(19)
C25 C26 C27 120.8(15)
C25 C26 H26 119.6
C27 C26 H26 119.6
C26 C27 C28 116(2)
C26 C27 H27 121.9
C28 C27 H27 121.9
C29 C28 C27 122.7(18)
C29 C28 C31 121.6(14)
C27 C28 C31 116(2)
C28 C29 C30 117.6(16)
C28 C29 H29 121.2
C30 C29 H29 121.2
C25 C30 C29 123(2)
C25 C30 H30 118.7
C29 C30 H30 118.7
C28 C31 H31A 109.5
C28 C31 H31B 109.5
H31A C31 H31B 109.5
C28 C31 H31C 109.5
H31A C31 H31C 109.5
H31B C31 H31C 109.5
loop_
_geom_bond_atom_site_label_1
_geom_bond_atom_site_label_2
_geom_bond_distance
S1 O2 1.433(9)
S1 O1 1.455(13)
S1 N2 1.639(14)
S1 C25 1.765(19)
N2 C1 1.498(14)
N2 C4 1.512(14)
C1 C5 1.54(2)
C1 C2 1.560(19)
C1 H1 1.0000
C2 C3 1.54(2)
C2 C13 1.56(2)
C2 H2 1.0000
C3 C4 1.558(16)
C3 H3A 0.9900
C3 H3B 0.9900
C4 C19 1.59(2)
C4 H4 1.0000
C5 C6 1.348(17)
C5 H5 0.9500
C6 C7 1.51(2)
C6 H6 0.9500
C7 C12 1.38(3)
C7 C8 1.43(2)
C8 C9 1.40(2)
C8 H8 0.9500
C9 C10 1.38(3)
C9 H9 0.9500
C10 C11 1.41(2)
C10 H10 0.9500
C11 C12 1.40(2)
C11 H11 0.9500
C12 H12 0.9500
C13 C14 1.37(3)
C13 C18 1.40(3)
C14 C15 1.40(2)
C14 H14 0.9500
C15 C16 1.43(3)
C15 H15 0.9500
C16 C17 1.37(3)
C16 H16 0.9500
C17 C18 1.40(2)
C17 H17 0.9500
C18 H18 0.9500
C19 C24 1.28(3)
C19 C20 1.41(2)
C20 C21 1.36(2)
C20 H20 0.9500
C21 C22 1.44(3)
C21 H21 0.9500
C22 C23 1.358(19)
C22 H22 0.9500
C23 C24 1.39(3)
C23 H23 0.9500
C24 H24 0.9500
C25 C26 1.35(3)
C25 C30 1.368(19)
C26 C27 1.42(2)
C26 H26 0.9500
C27 C28 1.43(2)
C27 H27 0.9500
C28 C29 1.35(3)
C28 C31 1.56(2)
C29 C30 1.39(2)
C29 H29 0.9500
C30 H30 0.9500
C31 H31A 0.9800
C31 H31B 0.9800
C31 H31C 0.9800
loop_
_geom_torsion_atom_site_label_1
_geom_torsion_atom_site_label_2
_geom_torsion_atom_site_label_3
_geom_torsion_atom_site_label_4
_geom_torsion
O2 S1 N2 C1 -165.3(12)
O1 S1 N2 C1 -35.9(15)
C25 S1 N2 C1 78.5(14)
O2 S1 N2 C4 -32.2(14)
O1 S1 N2 C4 97.1(11)
C25 S1 N2 C4 -148.5(12)
C4 N2 C1 C5 148.9(16)
S1 N2 C1 C5 -75.5(19)
C4 N2 C1 C2 30(2)
S1 N2 C1 C2 165.2(12)
N2 C1 C2 C3 -41.6(17)
C5 C1 C2 C3 -159.0(13)
N2 C1 C2 C13 -162.0(17)
C5 C1 C2 C13 81(2)
C13 C2 C3 C4 157.5(16)
C1 C2 C3 C4 39.4(18)
C1 N2 C4 C3 -5(2)
S1 N2 C4 C3 -141.2(14)
C1 N2 C4 C19 -127.3(16)
S1 N2 C4 C19 96.8(17)
C2 C3 C4 N2 -22(2)
C2 C3 C4 C19 97.5(17)
N2 C1 C5 C6 120.4(14)
C2 C1 C5 C6 -127.3(15)
C1 C5 C6 C7 -174.0(12)
C5 C6 C7 C12 4(3)
C5 C6 C7 C8 -180.0(13)
C12 C7 C8 C9 -2(3)
C6 C7 C8 C9 -178.4(14)
C7 C8 C9 C10 5(3)
C8 C9 C10 C11 -7(3)
C9 C10 C11 C12 6(3)
C8 C7 C12 C11 1(3)
C6 C7 C12 C11 177.2(14)
C10 C11 C12 C7 -3(3)
C3 C2 C13 C14 153.7(15)
C1 C2 C13 C14 -94(2)
C3 C2 C13 C18 -28(2)
C1 C2 C13 C18 84.5(18)
C18 C13 C14 C15 1(3)
C2 C13 C14 C15 178.7(13)
C13 C14 C15 C16 -1(2)
C14 C15 C16 C17 0(2)
C15 C16 C17 C18 1(3)
C14 C13 C18 C17 0(3)
C2 C13 C18 C17 -177.6(13)
C16 C17 C18 C13 -1(3)
N2 C4 C19 C24 28(2)
C3 C4 C19 C24 -87.9(19)
N2 C4 C19 C20 -147.8(13)
C3 C4 C19 C20 96.7(18)
C24 C19 C20 C21 3(3)
C4 C19 C20 C21 178.6(13)
C19 C20 C21 C22 0(2)
C20 C21 C22 C23 -2(2)
C21 C22 C23 C24 1(2)
C20 C19 C24 C23 -5(3)
C4 C19 C24 C23 -179.6(13)
C22 C23 C24 C19 3(3)
O2 S1 C25 C26 -55.7(16)
O1 S1 C25 C26 174.0(12)
N2 S1 C25 C26 57.5(14)
O2 S1 C25 C30 118.0(13)
O1 S1 C25 C30 -12.2(15)
N2 S1 C25 C30 -128.8(13)
C30 C25 C26 C27 6(2)
S1 C25 C26 C27 179.7(11)
C25 C26 C27 C28 -5(2)
C26 C27 C28 C29 4(2)
C26 C27 C28 C31 178.9(12)
C27 C28 C29 C30 -3(3)
C31 C28 C29 C30 -177.7(14)
C26 C25 C30 C29 -5(2)
S1 C25 C30 C29 -178.6(12)
C28 C29 C30 C25 3(3)
