#------------------------------------------------------------------------------
#$Date: 2018-10-05 15:19:55 +0300 (Fri, 05 Oct 2018) $
#$Revision: 211332 $
#$URL: file:///home/coder/svn-repositories/cod/cif/1/51/43/1514391.cif $
#------------------------------------------------------------------------------
#
# This file is available in the Crystallography Open Database (COD),
# http://www.crystallography.net/
#
# All data on this site have been placed in the public domain by the
# contributors.
#
data_1514391
loop_
_publ_author_name
'Park, Young Jun'
'Cook, Sarah A.'
'Sickerman, Nathaniel S.'
'Sano, Yohei'
'Ziller, Joseph W.'
'Borovik, A. S.'
_publ_section_title
;
 Heterobimetallic Complexes with M(III)-(\m-OH)-M(II) Cores (M(III) = Fe,
 Mn, Ga; M(II) = Ca, Sr, and Ba): Structural, Kinetic, and Redox
 Properties.
;
_journal_issue                   2
_journal_name_full
'Chemical science (Royal Society of Chemistry : 2010)'
_journal_page_first              717
_journal_page_last               726
_journal_paper_doi               10.1039/C2SC21400H
_journal_volume                  4
_journal_year                    2013
_chemical_formula_sum            'C45 H68 Ca Cl2 F3 Ga N4 O15 S4'
_chemical_formula_weight         1270.97
_chemical_name_systematic
;
?
;
_space_group_IT_number           2
_symmetry_cell_setting           triclinic
_symmetry_space_group_name_Hall  '-P 1'
_symmetry_space_group_name_H-M   'P -1'
_atom_sites_solution_hydrogens   mixed
_atom_sites_solution_primary     direct
_atom_sites_solution_secondary   difmap
_audit_creation_method           SHELXTL
_cell_angle_alpha                112.8012(4)
_cell_angle_beta                 97.8526(4)
_cell_angle_gamma                106.3846(4)
_cell_formula_units_Z            2
_cell_length_a                   14.3885(5)
_cell_length_b                   14.7196(5)
_cell_length_c                   15.8403(6)
_cell_measurement_reflns_used    9974
_cell_measurement_temperature    198(2)
_cell_measurement_theta_max      28.74
_cell_measurement_theta_min      2.36
_cell_volume                     2850.07(18)
_computing_cell_refinement       'Bruker SAINT'
_computing_data_collection       'Bruker APEX2'
_computing_data_reduction        'Bruker SAINT'
_computing_molecular_graphics    'Bruker SHELXTL'
_computing_publication_material  'Bruker SHELXTL'
_computing_structure_refinement  'SHELXL-97 (Sheldrick, 2008)'
_computing_structure_solution    'SHELXS-97 (Sheldrick, 2008)'
_diffrn_ambient_temperature      198(2)
_diffrn_measured_fraction_theta_full 0.998
_diffrn_measured_fraction_theta_max 0.993
_diffrn_measurement_device_type  'Bruker APEX-II CCD'
_diffrn_measurement_method       '\f and \w scans'
_diffrn_radiation_monochromator  graphite
_diffrn_radiation_source         'fine-focus sealed tube'
_diffrn_radiation_type           MoK\a
_diffrn_radiation_wavelength     0.71073
_diffrn_reflns_av_R_equivalents  0.0174
_diffrn_reflns_av_sigmaI/netI    0.0206
_diffrn_reflns_limit_h_max       18
_diffrn_reflns_limit_h_min       -18
_diffrn_reflns_limit_k_max       18
_diffrn_reflns_limit_k_min       -18
_diffrn_reflns_limit_l_max       20
_diffrn_reflns_limit_l_min       -20
_diffrn_reflns_number            33065
_diffrn_reflns_theta_full        25.50
_diffrn_reflns_theta_max         27.10
_diffrn_reflns_theta_min         1.61
_exptl_absorpt_coefficient_mu    0.888
_exptl_absorpt_correction_T_max  0.7916
_exptl_absorpt_correction_T_min  0.7239
_exptl_absorpt_correction_type   multi-scan
_exptl_absorpt_process_details   'Bruker SADABS'
_exptl_crystal_colour            colorless
_exptl_crystal_density_diffrn    1.481
_exptl_crystal_density_meas      ?
_exptl_crystal_density_method    'not measured'
_exptl_crystal_description       polyhedron
_exptl_crystal_F_000             1324
_exptl_crystal_size_max          0.39
_exptl_crystal_size_mid          0.33
_exptl_crystal_size_min          0.28
_refine_diff_density_max         1.172
_refine_diff_density_min         -1.399
_refine_diff_density_rms         0.075
_refine_ls_extinction_method     none
_refine_ls_goodness_of_fit_ref   1.059
_refine_ls_hydrogen_treatment    mixed
_refine_ls_matrix_type           full
_refine_ls_number_parameters     672
_refine_ls_number_reflns         12505
_refine_ls_number_restraints     1
_refine_ls_restrained_S_all      1.059
_refine_ls_R_factor_all          0.0516
_refine_ls_R_factor_gt           0.0469
_refine_ls_shift/su_max          0.001
_refine_ls_shift/su_mean         0.000
_refine_ls_structure_factor_coef Fsqd
_refine_ls_weighting_details
'calc w=1/[\s^2^(Fo^2^)+(0.0648P)^2^+3.8509P] where P=(Fo^2^+2Fc^2^)/3'
_refine_ls_weighting_scheme      calc
_refine_ls_wR_factor_gt          0.1264
_refine_ls_wR_factor_ref         0.1304
_reflns_number_gt                11177
_reflns_number_total             12505
_reflns_threshold_expression     >2sigma(I)
_iucr_refine_instructions_details
;
TITL asb265 in P-1
CELL 0.71073 14.3885 14.7196 15.8403 112.8012 97.8526 106.3846
ZERR 2.00 0.0005 0.0005 0.0006 0.0004 0.0004 0.0004
LATT 1
SFAC C H N O F S CL CA GA
UNIT 90 136 8 30 6 8 4 2 2

TEMP -75.000
SIZE 0.276 0.327 0.389

rem SADABS data 7/1/12

CONN 8 CA1
CONN 5 GA1

EADP F1 F2 F3 F1B F2B F3B
EADP O13 O14 O15 O13B O14B O15B

OMIT 0 -1 1
OMIT 0 0 1
OMIT 1 0 0

SHEL 100 0.78
DFIX 0.85 0.001 O7 H7
BIND O5 H7

L.S. 12
FMAP 2
PLAN 10

ACTA 51

WGHT 0.064800 3.850900
FVAR 0.10941
GA1 9 0.181383 0.445626 0.707407 11.00000 0.02220 0.02584 =
0.02415 0.01275 0.00808 0.01181
CA1 8 0.089378 0.237933 0.786167 11.00000 0.02787 0.02816 =
0.02667 0.01482 0.01049 0.01496
S1 6 0.249472 0.252779 0.622821 11.00000 0.02754 0.03612 =
0.03157 0.01511 0.01415 0.01820
S2 6 -0.048952 0.277122 0.608103 11.00000 0.02403 0.02636 =
0.02587 0.01021 0.00646 0.01372
S3 6 0.196268 0.661638 0.886332 11.00000 0.02853 0.02425 =
0.03428 0.00767 0.01111 0.00780
O1 4 0.181849 0.218115 0.673706 11.00000 0.03527 0.03262 =
0.04655 0.01675 0.02396 0.01674
O2 4 0.212735 0.195524 0.520596 11.00000 0.04741 0.05579 =
0.03311 0.01105 0.01196 0.02786
O3 4 -0.033502 0.272356 0.698597 11.00000 0.02702 0.03660 =
0.03494 0.02142 0.00852 0.01391
O4 4 -0.067390 0.180505 0.525358 11.00000 0.03859 0.03133 =
0.03847 0.00569 0.00916 0.01997
O5 4 0.180533 0.593630 0.933114 11.00000 0.04862 0.02815 =
0.03637 0.01045 0.02271 0.01023
O6 4 0.115970 0.699269 0.872534 11.00000 0.02926 0.03484 =
0.05347 0.00796 0.00932 0.01209
O7 4 0.171059 0.405181 0.803563 11.00000 0.03243 0.02690 =
0.02314 0.01147 0.00939 0.01327
H7 2 0.171898 0.461191 0.848394 11.00000 0.06879
O8 4 0.235719 0.283461 0.918872 11.00000 0.07931 0.07998 =
0.06256 0.02236 -0.01740 0.04360
O9 4 0.136992 0.089621 0.781859 11.00000 0.06527 0.05236 =
0.07665 0.03982 0.03404 0.04158
O10 4 -0.032745 0.056426 0.673128 11.00000 0.05097 0.02891 =
0.04677 0.01208 0.02365 0.01579
O11 4 -0.062857 0.177435 0.837706 11.00000 0.02983 0.03929 =
0.03508 0.01405 0.01249 0.01330
O12 4 0.087570 0.360543 0.947962 11.00000 0.04041 0.06017 =
0.03118 0.00459 0.01658 0.00208
N1 3 0.212751 0.503654 0.600984 11.00000 0.03061 0.03692 =
0.03299 0.02045 0.01459 0.01827
N2 3 0.275840 0.375938 0.659293 11.00000 0.02743 0.03722 =
0.03684 0.02214 0.01609 0.01893
N3 3 0.044712 0.372113 0.615897 11.00000 0.02296 0.03343 =
0.02438 0.01442 0.00777 0.01324
N4 3 0.218206 0.601855 0.787031 11.00000 0.03596 0.02511 =
0.03099 0.01280 0.01199 0.00959
C1 1 0.268486 0.445026 0.543099 11.00000 0.04202 0.05726 =
0.04282 0.03321 0.02795 0.03174
AFIX 23
H1B 2 0.309325 0.488362 0.517098 11.00000 -1.20000
H1C 2 0.220440 0.378193 0.489081 11.00000 -1.20000
AFIX 0
C2 1 0.336605 0.421244 0.607135 11.00000 0.03292 0.05727 =
0.05562 0.03945 0.02561 0.02650
AFIX 23
H2A 2 0.364338 0.370193 0.568318 11.00000 -1.20000
H2B 2 0.393574 0.487069 0.652728 11.00000 -1.20000
AFIX 0
C3 1 0.363419 0.233061 0.658288 11.00000 0.03375 0.04444 =
0.04254 0.02674 0.02009 0.02587
C4 1 0.383926 0.147427 0.594918 11.00000 0.05805 0.05717 =
0.05629 0.02788 0.02698 0.04104
C5 1 0.473199 0.135395 0.626711 11.00000 0.07393 0.07952 =
0.07722 0.03869 0.03627 0.06359
AFIX 43
H5B 2 0.488409 0.078383 0.584962 11.00000 -1.20000
AFIX 0
C6 1 0.539548 0.201454 0.714703 11.00000 0.05706 0.09504 =
0.08294 0.05653 0.03444 0.05844
C7 1 0.516888 0.283195 0.775443 11.00000 0.04156 0.08158 =
0.05920 0.04035 0.01650 0.03710
AFIX 43
H7B 2 0.562362 0.329073 0.837078 11.00000 -1.20000
AFIX 0
C8 1 0.429400 0.301279 0.749844 11.00000 0.03545 0.05428 =
0.04588 0.02815 0.01687 0.02776
C9 1 0.318267 0.067812 0.495073 11.00000 0.10015 0.07276 =
0.06586 0.00569 0.01950 0.06381
AFIX 137
H9A 2 0.247815 0.043090 0.496008 11.00000 -1.50000
H9B 2 0.340198 0.007437 0.472256 11.00000 -1.50000
H9C 2 0.324341 0.101437 0.452406 11.00000 -1.50000
AFIX 0
C10 1 0.637846 0.187389 0.745127 11.00000 0.07955 0.14875 =
0.11115 0.07011 0.03461 0.09079
AFIX 137
H10A 2 0.622671 0.116726 0.741952 11.00000 -1.50000
H10B 2 0.674633 0.241251 0.810606 11.00000 -1.50000
H10C 2 0.679318 0.195164 0.702350 11.00000 -1.50000
AFIX 0
C11 1 0.415341 0.395096 0.822884 11.00000 0.04674 0.06761 =
0.03953 0.01399 0.00291 0.03410
AFIX 137
H11A 2 0.455399 0.413652 0.886461 11.00000 -1.50000
H11B 2 0.343918 0.377179 0.821182 11.00000 -1.50000
H11C 2 0.437562 0.455483 0.808520 11.00000 -1.50000
AFIX 0
C12 1 0.112993 0.481850 0.541941 11.00000 0.03735 0.04647 =
0.03346 0.02595 0.01369 0.02347
AFIX 23
H12A 2 0.119057 0.482854 0.480774 11.00000 -1.20000
H12B 2 0.086783 0.537171 0.575462 11.00000 -1.20000
AFIX 0
C13 1 0.041133 0.374274 0.523197 11.00000 0.03381 0.04889 =
0.02561 0.02104 0.00871 0.01913
AFIX 23
H13A 2 -0.028223 0.362507 0.491085 11.00000 -1.20000
H13B 2 0.061510 0.317722 0.481458 11.00000 -1.20000
AFIX 0
C14 1 -0.158062 0.312061 0.596220 11.00000 0.02231 0.02864 =
0.02696 0.01279 0.00746 0.01276
C15 1 -0.243866 0.248324 0.517247 11.00000 0.02870 0.03608 =
0.03026 0.01275 0.00434 0.01253
C16 1 -0.329007 0.276394 0.519282 11.00000 0.02456 0.04707 =
0.04099 0.02315 0.00369 0.01074
AFIX 43
H16A 2 -0.387946 0.232885 0.467224 11.00000 -1.20000
AFIX 0
C17 1 -0.331688 0.363748 0.592801 11.00000 0.02630 0.04741 =
0.05312 0.03179 0.01814 0.02022
C18 1 -0.245100 0.427198 0.667701 11.00000 0.03385 0.03753 =
0.04641 0.01634 0.01760 0.02052
AFIX 43
H18A 2 -0.245095 0.488948 0.718204 11.00000 -1.20000
AFIX 0
C19 1 -0.157993 0.403605 0.671553 11.00000 0.02789 0.03230 =
0.03155 0.01072 0.01028 0.01443
C20 1 -0.251396 0.153684 0.428151 11.00000 0.04839 0.06024 =
0.03975 -0.00793 -0.01147 0.02584
AFIX 137
H20A 2 -0.200652 0.176057 0.397589 11.00000 -1.50000
H20B 2 -0.318815 0.123896 0.383917 11.00000 -1.50000
H20C 2 -0.239595 0.099855 0.445291 11.00000 -1.50000
AFIX 0
C21 1 -0.426102 0.390133 0.592061 11.00000 0.03114 0.06809 =
0.08266 0.04297 0.02374 0.02981
AFIX 137
H21A 2 -0.463439 0.366612 0.526141 11.00000 -1.50000
H21B 2 -0.407375 0.466855 0.628076 11.00000 -1.50000
H21C 2 -0.468591 0.354006 0.621488 11.00000 -1.50000
AFIX 0
C22 1 -0.068407 0.478764 0.756324 11.00000 0.03845 0.04138 =
0.04049 -0.00493 0.00293 0.01975
AFIX 137
H22A 2 -0.087433 0.532905 0.801759 11.00000 -1.50000
H22B 2 -0.013685 0.512873 0.735337 11.00000 -1.50000
H22C 2 -0.045698 0.439512 0.787140 11.00000 -1.50000
AFIX 0
C23 1 0.273525 0.618056 0.654150 11.00000 0.04453 0.03935 =
0.04482 0.02742 0.01713 0.01201
AFIX 23
H23A 2 0.270568 0.651946 0.611219 11.00000 -1.20000
H23B 2 0.344824 0.628789 0.678623 11.00000 -1.20000
AFIX 0
C24 1 0.232887 0.668253 0.736576 11.00000 0.05847 0.02831 =
0.04039 0.01813 0.01595 0.01384
AFIX 23
H24A 2 0.281162 0.740767 0.780528 11.00000 -1.20000
H24B 2 0.167985 0.672835 0.712511 11.00000 -1.20000
AFIX 0
C25 1 0.307318 0.775664 0.962100 11.00000 0.03022 0.02573 =
0.03122 0.00875 0.00811 0.00682
C26 1 0.395963 0.758747 0.988627 11.00000 0.03415 0.03525 =
0.04115 0.01257 0.01094 0.01148
C27 1 0.479452 0.845250 1.054624 11.00000 0.03298 0.04783 =
0.04968 0.01354 0.00484 0.01097
AFIX 43
H27A 2 0.539603 0.834519 1.072977 11.00000 -1.20000
AFIX 0
C28 1 0.478381 0.946950 1.094864 11.00000 0.03860 0.04139 =
0.04311 0.00652 0.00287 0.00195
C29 1 0.391439 0.961992 1.066427 11.00000 0.05006 0.02731 =
0.04527 0.00707 0.00663 0.00594
AFIX 43
H29A 2 0.390611 1.031654 1.093009 11.00000 -1.20000
AFIX 0
C30 1 0.304161 0.878513 0.999801 11.00000 0.03982 0.02904 =
0.03808 0.00993 0.00656 0.01072
C31 1 0.407270 0.652243 0.947642 11.00000 0.04147 0.04278 =
0.06358 0.01679 0.00988 0.02210
AFIX 137
H31A 2 0.352513 0.600014 0.953907 11.00000 -1.50000
H31B 2 0.472253 0.658184 0.982358 11.00000 -1.50000
H31C 2 0.404366 0.629552 0.880117 11.00000 -1.50000
AFIX 0
C32 1 0.570209 1.039602 1.168132 11.00000 0.05238 0.05876 =
0.06741 -0.00022 -0.00828 -0.00288
AFIX 137
H32A 2 0.581571 1.032536 1.227338 11.00000 -1.50000
H32B 2 0.559181 1.105827 1.180732 11.00000 -1.50000
H32C 2 0.629340 1.040440 1.143771 11.00000 -1.50000
AFIX 0
C33 1 0.215508 0.908992 0.975421 11.00000 0.05881 0.02929 =
0.07226 0.01081 -0.00519 0.01883
AFIX 137
H33A 2 0.234964 0.985956 1.010159 11.00000 -1.50000
H33B 2 0.158720 0.873837 0.993643 11.00000 -1.50000
H33C 2 0.195554 0.886877 0.906706 11.00000 -1.50000
AFIX 0
C34 1 0.242505 0.195331 0.934424 11.00000 0.09847 0.14876 =
0.07411 0.07225 0.02277 0.08440
AFIX 23
H34A 2 0.309738 0.215604 0.976814 11.00000 -1.20000
H34B 2 0.190722 0.173979 0.965317 11.00000 -1.20000
AFIX 0
C35 1 0.226922 0.108777 0.843885 11.00000 0.07079 0.08327 =
0.12564 0.06450 0.02725 0.05369
AFIX 23
H35A 2 0.283969 0.126589 0.817217 11.00000 -1.20000
H35B 2 0.223255 0.044585 0.852006 11.00000 -1.20000
AFIX 0
C36 1 0.097929 -0.009505 0.699191 11.00000 0.06709 0.03803 =
0.15928 0.01999 0.03779 0.03340
AFIX 23
H36A 2 0.067204 -0.066776 0.716348 11.00000 -1.20000
H36B 2 0.153242 -0.023550 0.671935 11.00000 -1.20000
AFIX 0
C37 1 0.020281 -0.008077 0.627096 11.00000 0.06397 0.03564 =
0.08814 -0.00052 0.04056 0.01605
AFIX 23
H37A 2 0.053470 0.019933 0.586857 11.00000 -1.20000
H37B 2 -0.028006 -0.081209 0.585238 11.00000 -1.20000
AFIX 0
C38 1 -0.104078 0.008248 0.711256 11.00000 0.04328 0.03374 =
0.05041 0.01720 0.01484 0.00865
AFIX 23
H38A 2 -0.071171 -0.013062 0.755618 11.00000 -1.20000
H38B 2 -0.158602 -0.055455 0.659513 11.00000 -1.20000
AFIX 0
C40 1 -0.088597 0.265689 0.891146 11.00000 0.03772 0.05288 =
0.03942 0.01311 0.01767 0.02194
AFIX 23
H40A 2 -0.150802 0.241443 0.909257 11.00000 -1.20000
H40B 2 -0.100180 0.302922 0.852755 11.00000 -1.20000
AFIX 0
C39 1 -0.145912 0.089752 0.763129 11.00000 0.03093 0.04576 =
0.04527 0.01477 0.01038 0.00923
AFIX 23
H39A 2 -0.177007 0.112574 0.719119 11.00000 -1.20000
H39B 2 -0.197862 0.060215 0.790188 11.00000 -1.20000
AFIX 0
C41 1 -0.001895 0.337899 0.978195 11.00000 0.04303 0.05741 =
0.03485 0.01107 0.02135 0.01585
AFIX 23
H41A 2 -0.012583 0.404280 1.014143 11.00000 -1.20000
H41B 2 0.004367 0.303449 1.020245 11.00000 -1.20000
AFIX 0
C42 1 0.177998 0.400811 1.025349 11.00000 0.04378 0.12682 =
0.03841 -0.01448 0.00713 -0.01023
AFIX 23
H42A 2 0.197855 0.478475 1.061522 11.00000 -1.20000
H42B 2 0.161904 0.369608 1.069263 11.00000 -1.20000
AFIX 0
C43 1 0.257849 0.380022 0.996972 11.00000 0.12703 0.16159 =
0.08906 -0.03521 -0.06316 0.09774
AFIX 23
H43A 2 0.304131 0.383404 1.051388 11.00000 -1.20000
H43B 2 0.294662 0.437044 0.981950 11.00000 -1.20000
AFIX 0
C44 1 0.926553 0.759555 0.816669 11.00000 0.05901 0.06798 =
0.04742 0.03251 0.01697 0.02856
AFIX 23
H44A 2 0.966565 0.729848 0.846852 11.00000 -1.20000
H44B 2 0.854388 0.720820 0.806778 11.00000 -1.20000
AFIX 0
CL1 7 0.958022 0.892870 0.893383 11.00000 0.09917 0.08900 =
0.05489 0.00629 0.00067 0.05128
CL2 7 0.948174 0.739327 0.706562 11.00000 0.12683 0.08593 =
0.04265 0.02704 0.02843 0.02857
S4 6 0.618468 0.710552 0.792098 11.00000 0.04731 0.04659 =
0.05258 0.01316 0.00869 0.01419
PART 1
O13 4 0.693384 0.664688 0.802074 10.50000 0.08272
O14 4 0.620599 0.795006 0.876458 10.50000 0.08272
O15 4 0.518552 0.623993 0.747099 10.50000 0.08272
C45 1 0.621002 0.732569 0.693584 10.50000 0.05992
F1 5 0.596311 0.823047 0.694913 10.50000 0.11222
F2 5 0.573390 0.639613 0.610799 10.50000 0.11222
F3 5 0.712288 0.769216 0.675370 10.50000 0.11222
PART 2
O13B 4 0.678703 0.646807 0.780024 10.50000 0.08272
O14B 4 0.674531 0.814138 0.868807 10.50000 0.08272
O15B 4 0.516936 0.670784 0.781573 10.50000 0.08272
C45B 1 0.646814 0.773975 0.712189 10.50000 0.08794
F1B 5 0.556725 0.781402 0.681973 10.50000 0.11222
F2B 5 0.639378 0.688248 0.625491 10.50000 0.11222
F3B 5 0.729223 0.840850 0.743780 10.50000 0.11222
PART 0

HKLF 4

REM asb265 in P-1
REM R1 = 0.0469 for 11177 Fo > 4sig(Fo) and 0.0516 for all 12505 data
REM 672 parameters refined using 1 restraints

END

WGHT 0.0648 3.8497
REM Highest difference peak 1.172, deepest hole -1.399, 1-sigma level 0.075
Q1 1 0.2176 0.3407 1.0294 11.00000 0.05 0.96
Q2 1 0.7409 0.8079 0.7210 11.00000 0.05 0.83
Q3 1 0.5963 0.7021 0.7358 11.00000 0.05 0.81
Q4 1 0.5266 0.7415 0.8070 11.00000 0.05 0.76
Q5 1 0.7346 0.8820 0.7941 11.00000 0.05 0.75
Q6 1 0.7125 0.8268 0.8534 11.00000 0.05 0.75
Q7 1 0.5142 0.6451 0.7077 11.00000 0.05 0.72
Q8 1 0.6611 0.7448 0.6326 11.00000 0.05 0.69
Q9 1 0.5171 0.6229 0.6150 11.00000 0.05 0.67
Q10 1 0.6174 0.6244 0.7895 11.00000 0.05 0.60

;
_cod_data_source_file            c2sc21400h.txt
_cod_data_source_block           asb265
_cod_depositor_comments
;
The following automatic conversions were performed:

'_symmetry_cell_setting' value 'Triclinic' changed to 'triclinic'
according to
/usr/data/users/saulius/automatic-downloads/retrospective/RSC/lib/dictionaries/cif_core.dic
dictionary named 'cif_core.dic' version 2.4.2 from 2011-04-26.

Automatic conversion script
Id: cif_fix_values 2281 2013-09-26 08:29:07Z andrius 

The following automatic conversions were performed:

'_exptl_crystal_density_meas' value 'not_measured' was changed to '?'
- the value is perceived as not measured.

Automatic conversion script
Id: cif_fix_values 3008 2015-01-20 13:52:24Z robertas 

The following automatic conversions were performed:

'_atom_sites_solution_hydrogens' value 'difmap & geom' was changed to
'mixed'.

Automatic conversion script
Id: cif_fix_values 6452 2018-10-05 10:23:21Z andrius 
;
_cod_original_sg_symbol_H-M      P-1
_cod_database_code               1514391
loop_
_symmetry_equiv_pos_as_xyz
'x, y, z'
'-x, -y, -z'
loop_
_atom_site_label
_atom_site_type_symbol
_atom_site_fract_x
_atom_site_fract_y
_atom_site_fract_z
_atom_site_U_iso_or_equiv
_atom_site_adp_type
_atom_site_occupancy
_atom_site_symmetry_multiplicity
_atom_site_calc_flag
_atom_site_refinement_flags
_atom_site_disorder_assembly
_atom_site_disorder_group
Ga1 Ga 0.181383(19) 0.44563(2) 0.707407(18) 0.02265(8) Uani 1 1 d . . .
Ca1 Ca 0.08938(4) 0.23793(4) 0.78617(3) 0.02526(11) Uani 1 1 d . . .
S1 S 0.24947(5) 0.25278(5) 0.62282(5) 0.02955(14) Uani 1 1 d . . .
S2 S -0.04895(4) 0.27712(5) 0.60810(4) 0.02492(13) Uani 1 1 d . . .
S3 S 0.19627(5) 0.66164(5) 0.88633(5) 0.03106(14) Uani 1 1 d . . .
O1 O 0.18185(15) 0.21812(15) 0.67371(15) 0.0361(4) Uani 1 1 d . . .
O2 O 0.21274(17) 0.19552(19) 0.52060(15) 0.0462(5) Uani 1 1 d . . .
O3 O -0.03350(13) 0.27236(15) 0.69860(13) 0.0305(4) Uani 1 1 d . . .
O4 O -0.06739(15) 0.18050(15) 0.52536(15) 0.0380(4) Uani 1 1 d . . .
O5 O 0.18053(16) 0.59363(15) 0.93311(14) 0.0388(5) Uani 1 1 d . . .
O6 O 0.11597(15) 0.69927(16) 0.87253(16) 0.0434(5) Uani 1 1 d . . .
O7 O 0.17106(14) 0.40518(14) 0.80356(12) 0.0266(4) Uani 1 1 d D . .
H7 H 0.172(3) 0.4612(19) 0.848(2) 0.069(13) Uiso 1 1 d D . .
O8 O 0.2357(2) 0.2835(3) 0.9189(2) 0.0779(9) Uani 1 1 d . . .
O9 O 0.1370(2) 0.0896(2) 0.7819(2) 0.0547(6) Uani 1 1 d . . .
O10 O -0.03274(17) 0.05643(16) 0.67313(16) 0.0425(5) Uani 1 1 d . . .
O11 O -0.06286(14) 0.17744(16) 0.83771(14) 0.0351(4) Uani 1 1 d . . .
O12 O 0.08757(17) 0.3605(2) 0.94796(15) 0.0525(6) Uani 1 1 d . . .
N1 N 0.21275(17) 0.50365(18) 0.60098(16) 0.0298(5) Uani 1 1 d . . .
N2 N 0.27584(16) 0.37594(18) 0.65929(16) 0.0295(5) Uani 1 1 d . . .
N3 N 0.04471(15) 0.37211(17) 0.61590(14) 0.0256(4) Uani 1 1 d . . .
N4 N 0.21821(17) 0.60186(17) 0.78703(16) 0.0307(5) Uani 1 1 d . . .
C1 C 0.2685(2) 0.4450(3) 0.5431(2) 0.0387(6) Uani 1 1 d . . .
H1B H 0.3093 0.4884 0.5171 0.046 Uiso 1 1 calc R . .
H1C H 0.2204 0.3782 0.4891 0.046 Uiso 1 1 calc R . .
C2 C 0.3366(2) 0.4212(3) 0.6071(2) 0.0399(7) Uani 1 1 d . . .
H2A H 0.3643 0.3702 0.5683 0.048 Uiso 1 1 calc R . .
H2B H 0.3936 0.4871 0.6527 0.048 Uiso 1 1 calc R . .
C3 C 0.3634(2) 0.2331(2) 0.6583(2) 0.0340(6) Uani 1 1 d . . .
C4 C 0.3839(3) 0.1474(3) 0.5949(3) 0.0504(8) Uani 1 1 d . . .
C5 C 0.4732(3) 0.1354(4) 0.6267(3) 0.0655(11) Uani 1 1 d . . .
H5B H 0.4884 0.0784 0.5850 0.079 Uiso 1 1 calc R . .
C6 C 0.5395(3) 0.2015(4) 0.7147(3) 0.0638(11) Uani 1 1 d . . .
C7 C 0.5169(3) 0.2832(3) 0.7754(3) 0.0541(9) Uani 1 1 d . . .
H7B H 0.5624 0.3291 0.8371 0.065 Uiso 1 1 calc R . .
C8 C 0.4294(2) 0.3013(3) 0.7498(2) 0.0400(7) Uani 1 1 d . . .
C9 C 0.3183(4) 0.0678(4) 0.4951(3) 0.0810(15) Uani 1 1 d . . .
H9A H 0.2478 0.0431 0.4960 0.121 Uiso 1 1 calc R . .
H9B H 0.3402 0.0074 0.4723 0.121 Uiso 1 1 calc R . .
H9C H 0.3243 0.1014 0.4524 0.121 Uiso 1 1 calc R . .
C10 C 0.6378(4) 0.1874(5) 0.7451(4) 0.0966(19) Uani 1 1 d . . .
H10A H 0.6227 0.1167 0.7420 0.145 Uiso 1 1 calc R . .
H10B H 0.6746 0.2413 0.8106 0.145 Uiso 1 1 calc R . .
H10C H 0.6793 0.1952 0.7023 0.145 Uiso 1 1 calc R . .
C11 C 0.4153(3) 0.3951(3) 0.8229(2) 0.0526(9) Uani 1 1 d . . .
H11A H 0.4554 0.4137 0.8865 0.079 Uiso 1 1 calc R . .
H11B H 0.3439 0.3772 0.8212 0.079 Uiso 1 1 calc R . .
H11C H 0.4376 0.4555 0.8085 0.079 Uiso 1 1 calc R . .
C12 C 0.1130(2) 0.4818(2) 0.5419(2) 0.0340(6) Uani 1 1 d . . .
H12A H 0.1191 0.4829 0.4808 0.041 Uiso 1 1 calc R . .
H12B H 0.0868 0.5372 0.5755 0.041 Uiso 1 1 calc R . .
C13 C 0.0411(2) 0.3743(2) 0.52320(19) 0.0336(6) Uani 1 1 d . . .
H13A H -0.0282 0.3625 0.4911 0.040 Uiso 1 1 calc R . .
H13B H 0.0615 0.3177 0.4815 0.040 Uiso 1 1 calc R . .
C14 C -0.15806(18) 0.31206(19) 0.59622(17) 0.0250(5) Uani 1 1 d . . .
C15 C -0.2439(2) 0.2483(2) 0.51725(19) 0.0327(6) Uani 1 1 d . . .
C16 C -0.3290(2) 0.2764(2) 0.5193(2) 0.0376(6) Uani 1 1 d . . .
H16A H -0.3879 0.2329 0.4672 0.045 Uiso 1 1 calc R . .
C17 C -0.3317(2) 0.3637(2) 0.5928(2) 0.0367(6) Uani 1 1 d . . .
C18 C -0.2451(2) 0.4272(2) 0.6677(2) 0.0376(6) Uani 1 1 d . . .
H18A H -0.2451 0.4889 0.7182 0.045 Uiso 1 1 calc R . .
C19 C -0.1580(2) 0.4036(2) 0.67155(19) 0.0308(5) Uani 1 1 d . . .
C20 C -0.2514(3) 0.1537(3) 0.4282(2) 0.0610(11) Uani 1 1 d . . .
H20A H -0.2007 0.1761 0.3976 0.092 Uiso 1 1 calc R . .
H20B H -0.3188 0.1239 0.3839 0.092 Uiso 1 1 calc R . .
H20C H -0.2396 0.0999 0.4453 0.092 Uiso 1 1 calc R . .
C21 C -0.4261(2) 0.3901(3) 0.5921(3) 0.0539(9) Uani 1 1 d . . .
H21A H -0.4634 0.3666 0.5261 0.081 Uiso 1 1 calc R . .
H21B H -0.4074 0.4669 0.6281 0.081 Uiso 1 1 calc R . .
H21C H -0.4686 0.3540 0.6215 0.081 Uiso 1 1 calc R . .
C22 C -0.0684(2) 0.4788(3) 0.7563(2) 0.0477(8) Uani 1 1 d . . .
H22A H -0.0874 0.5329 0.8018 0.072 Uiso 1 1 calc R . .
H22B H -0.0137 0.5129 0.7353 0.072 Uiso 1 1 calc R . .
H22C H -0.0457 0.4395 0.7871 0.072 Uiso 1 1 calc R . .
C23 C 0.2735(2) 0.6181(2) 0.6541(2) 0.0403(7) Uani 1 1 d . . .
H23A H 0.2706 0.6519 0.6112 0.048 Uiso 1 1 calc R . .
H23B H 0.3448 0.6288 0.6786 0.048 Uiso 1 1 calc R . .
C24 C 0.2329(3) 0.6683(2) 0.7366(2) 0.0417(7) Uani 1 1 d . . .
H24A H 0.2812 0.7408 0.7805 0.050 Uiso 1 1 calc R . .
H24B H 0.1680 0.6728 0.7125 0.050 Uiso 1 1 calc R . .
C25 C 0.3073(2) 0.7757(2) 0.96210(19) 0.0313(5) Uani 1 1 d . . .
C26 C 0.3960(2) 0.7587(2) 0.9886(2) 0.0386(6) Uani 1 1 d . . .
C27 C 0.4795(2) 0.8453(3) 1.0546(2) 0.0480(8) Uani 1 1 d . . .
H27A H 0.5396 0.8345 1.0730 0.058 Uiso 1 1 calc R . .
C28 C 0.4784(3) 0.9470(3) 1.0949(2) 0.0492(8) Uani 1 1 d . . .
C29 C 0.3914(3) 0.9620(2) 1.0664(2) 0.0467(7) Uani 1 1 d . . .
H29A H 0.3906 1.0317 1.0930 0.056 Uiso 1 1 calc R . .
C30 C 0.3042(2) 0.8785(2) 0.9998(2) 0.0383(6) Uani 1 1 d . . .
C31 C 0.4073(3) 0.6522(3) 0.9476(3) 0.0506(8) Uani 1 1 d . . .
H31A H 0.3525 0.6000 0.9539 0.076 Uiso 1 1 calc R . .
H31B H 0.4723 0.6582 0.9824 0.076 Uiso 1 1 calc R . .
H31C H 0.4044 0.6296 0.8801 0.076 Uiso 1 1 calc R . .
C32 C 0.5702(3) 1.0396(4) 1.1681(3) 0.0775(14) Uani 1 1 d . . .
H32A H 0.5816 1.0325 1.2273 0.116 Uiso 1 1 calc R . .
H32B H 0.5592 1.1058 1.1807 0.116 Uiso 1 1 calc R . .
H32C H 0.6293 1.0404 1.1438 0.116 Uiso 1 1 calc R . .
C33 C 0.2155(3) 0.9090(3) 0.9754(3) 0.0595(10) Uani 1 1 d . . .
H33A H 0.2350 0.9860 1.0102 0.089 Uiso 1 1 calc R . .
H33B H 0.1587 0.8738 0.9936 0.089 Uiso 1 1 calc R . .
H33C H 0.1956 0.8869 0.9067 0.089 Uiso 1 1 calc R . .
C34 C 0.2425(4) 0.1953(5) 0.9344(4) 0.0904(17) Uani 1 1 d . . .
H34A H 0.3097 0.2156 0.9768 0.108 Uiso 1 1 calc R . .
H34B H 0.1907 0.1740 0.9653 0.108 Uiso 1 1 calc R . .
C35 C 0.2269(4) 0.1088(4) 0.8439(4) 0.0812(15) Uani 1 1 d . . .
H35A H 0.2840 0.1266 0.8172 0.097 Uiso 1 1 calc R . .
H35B H 0.2233 0.0446 0.8520 0.097 Uiso 1 1 calc R . .
C36 C 0.0979(4) -0.0095(3) 0.6992(5) 0.0923(19) Uani 1 1 d . . .
H36A H 0.0672 -0.0668 0.7163 0.111 Uiso 1 1 calc R . .
H36B H 0.1532 -0.0235 0.6719 0.111 Uiso 1 1 calc R . .
C37 C 0.0203(3) -0.0081(3) 0.6271(3) 0.0706(13) Uani 1 1 d . . .
H37A H 0.0535 0.0199 0.5869 0.085 Uiso 1 1 calc R . .
H37B H -0.0280 -0.0812 0.5852 0.085 Uiso 1 1 calc R . .
C38 C -0.1041(2) 0.0082(2) 0.7113(2) 0.0441(7) Uani 1 1 d . . .
H38A H -0.0712 -0.0131 0.7556 0.053 Uiso 1 1 calc R . .
H38B H -0.1586 -0.0555 0.6595 0.053 Uiso 1 1 calc R . .
C40 C -0.0886(2) 0.2657(3) 0.8911(2) 0.0439(7) Uani 1 1 d . . .
H40A H -0.1508 0.2414 0.9093 0.053 Uiso 1 1 calc R . .
H40B H -0.1002 0.3029 0.8528 0.053 Uiso 1 1 calc R . .
C39 C -0.1459(2) 0.0898(3) 0.7631(2) 0.0437(7) Uani 1 1 d . . .
H39A H -0.1770 0.1126 0.7191 0.052 Uiso 1 1 calc R . .
H39B H -0.1979 0.0602 0.7902 0.052 Uiso 1 1 calc R . .
C41 C -0.0019(2) 0.3379(3) 0.9782(2) 0.0478(8) Uani 1 1 d . . .
H41A H -0.0126 0.4043 1.0141 0.057 Uiso 1 1 calc R . .
H41B H 0.0044 0.3034 1.0202 0.057 Uiso 1 1 calc R . .
C42 C 0.1780(3) 0.4008(5) 1.0253(3) 0.098(2) Uani 1 1 d . . .
H42A H 0.1979 0.4785 1.0615 0.117 Uiso 1 1 calc R . .
H42B H 0.1619 0.3696 1.0693 0.117 Uiso 1 1 calc R . .
C43 C 0.2578(6) 0.3800(6) 0.9970(5) 0.157(4) Uani 1 1 d . . .
H43A H 0.3041 0.3834 1.0514 0.188 Uiso 1 1 calc R . .
H43B H 0.2947 0.4370 0.9819 0.188 Uiso 1 1 calc R . .
C44 C 0.9266(3) 0.7596(3) 0.8167(3) 0.0544(9) Uani 1 1 d . . .
H44A H 0.9666 0.7298 0.8469 0.065 Uiso 1 1 calc R . .
H44B H 0.8544 0.7208 0.8068 0.065 Uiso 1 1 calc R . .
Cl1 Cl 0.95802(11) 0.89287(11) 0.89338(8) 0.0882(4) Uani 1 1 d . . .
Cl2 Cl 0.94817(12) 0.73933(11) 0.70656(8) 0.0877(4) Uani 1 1 d . . .
S4 S 0.61847(7) 0.71055(7) 0.79210(7) 0.0532(2) Uani 1 1 d . . .
O13 O 0.6934(8) 0.6647(8) 0.8021(7) 0.0827(8) Uiso 0.50 1 d P A 1
O14 O 0.6206(6) 0.7950(6) 0.8765(5) 0.0827(8) Uiso 0.50 1 d P A 1
O15 O 0.5186(6) 0.6240(6) 0.7471(5) 0.0827(8) Uiso 0.50 1 d P A 1
C45 C 0.6210(8) 0.7326(9) 0.6936(7) 0.060(2) Uiso 0.50 1 d P A 1
F1 F 0.5963(6) 0.8230(6) 0.6949(6) 0.1122(10) Uiso 0.50 1 d P A 1
F2 F 0.5734(6) 0.6396(6) 0.6108(6) 0.1122(10) Uiso 0.50 1 d P A 1
F3 F 0.7123(6) 0.7692(7) 0.6754(6) 0.1122(10) Uiso 0.50 1 d P A 1
O13B O 0.6787(8) 0.6468(8) 0.7800(6) 0.0827(8) Uiso 0.50 1 d P A 2
O14B O 0.6745(6) 0.8141(6) 0.8688(5) 0.0827(8) Uiso 0.50 1 d P A 2
O15B O 0.5169(6) 0.6708(6) 0.7816(5) 0.0827(8) Uiso 0.50 1 d P A 2
C45B C 0.6468(11) 0.7740(12) 0.7122(10) 0.088(4) Uiso 0.50 1 d P A 2
F1B F 0.5567(6) 0.7814(7) 0.6820(6) 0.1122(10) Uiso 0.50 1 d P A 2
F2B F 0.6394(7) 0.6882(7) 0.6255(6) 0.1122(10) Uiso 0.50 1 d P A 2
F3B F 0.7292(6) 0.8408(7) 0.7438(6) 0.1122(10) Uiso 0.50 1 d P A 2
loop_
_atom_site_aniso_label
_atom_site_aniso_U_11
_atom_site_aniso_U_22
_atom_site_aniso_U_33
_atom_site_aniso_U_23
_atom_site_aniso_U_13
_atom_site_aniso_U_12
Ga1 0.02220(13) 0.02584(14) 0.02415(14) 0.01275(11) 0.00808(10) 0.01181(10)
Ca1 0.0279(2) 0.0282(2) 0.0267(2) 0.0148(2) 0.01049(19) 0.0150(2)
S1 0.0275(3) 0.0361(3) 0.0316(3) 0.0151(3) 0.0142(2) 0.0182(3)
S2 0.0240(3) 0.0264(3) 0.0259(3) 0.0102(2) 0.0065(2) 0.0137(2)
S3 0.0285(3) 0.0243(3) 0.0343(3) 0.0077(3) 0.0111(3) 0.0078(2)
O1 0.0353(10) 0.0326(10) 0.0466(11) 0.0168(9) 0.0240(9) 0.0167(8)
O2 0.0474(12) 0.0558(14) 0.0331(11) 0.0110(10) 0.0120(9) 0.0279(11)
O3 0.0270(9) 0.0366(10) 0.0349(10) 0.0214(8) 0.0085(7) 0.0139(8)
O4 0.0386(11) 0.0313(10) 0.0385(11) 0.0057(8) 0.0092(8) 0.0200(8)
O5 0.0486(12) 0.0281(10) 0.0364(10) 0.0105(8) 0.0227(9) 0.0102(9)
O6 0.0293(10) 0.0348(11) 0.0535(13) 0.0080(9) 0.0093(9) 0.0121(8)
O7 0.0324(9) 0.0269(9) 0.0231(8) 0.0115(7) 0.0094(7) 0.0133(7)
O8 0.079(2) 0.080(2) 0.0626(18) 0.0224(15) -0.0174(15) 0.0436(17)
O9 0.0653(16) 0.0524(14) 0.0766(17) 0.0398(13) 0.0340(14) 0.0416(13)
O10 0.0510(13) 0.0289(10) 0.0468(12) 0.0121(9) 0.0236(10) 0.0158(9)
O11 0.0298(9) 0.0393(10) 0.0351(10) 0.0140(8) 0.0125(8) 0.0133(8)
O12 0.0404(12) 0.0602(15) 0.0312(11) 0.0046(10) 0.0166(9) 0.0021(10)
N1 0.0306(11) 0.0369(12) 0.0330(11) 0.0204(10) 0.0146(9) 0.0183(9)
N2 0.0274(10) 0.0372(12) 0.0368(12) 0.0221(10) 0.0161(9) 0.0189(9)
N3 0.0230(10) 0.0334(11) 0.0244(10) 0.0144(9) 0.0078(8) 0.0132(8)
N4 0.0360(12) 0.0251(10) 0.0310(11) 0.0128(9) 0.0120(9) 0.0096(9)
C1 0.0420(15) 0.0573(18) 0.0428(16) 0.0332(15) 0.0280(13) 0.0317(14)
C2 0.0329(14) 0.0573(18) 0.0556(18) 0.0394(16) 0.0256(13) 0.0265(13)
C3 0.0338(14) 0.0444(15) 0.0425(15) 0.0267(13) 0.0201(12) 0.0259(12)
C4 0.058(2) 0.057(2) 0.056(2) 0.0279(17) 0.0270(17) 0.0410(18)
C5 0.074(3) 0.080(3) 0.077(3) 0.039(2) 0.036(2) 0.064(2)
C6 0.057(2) 0.095(3) 0.083(3) 0.057(3) 0.034(2) 0.058(2)
C7 0.0416(18) 0.082(3) 0.059(2) 0.040(2) 0.0165(16) 0.0371(18)
C8 0.0354(15) 0.0543(18) 0.0459(17) 0.0281(15) 0.0169(13) 0.0278(14)
C9 0.100(4) 0.073(3) 0.066(3) 0.006(2) 0.019(2) 0.064(3)
C10 0.080(3) 0.149(5) 0.111(4) 0.070(4) 0.035(3) 0.091(4)
C11 0.0467(18) 0.068(2) 0.0395(17) 0.0140(16) 0.0029(14) 0.0341(17)
C12 0.0374(14) 0.0465(16) 0.0335(14) 0.0259(12) 0.0137(11) 0.0235(12)
C13 0.0338(14) 0.0489(16) 0.0256(12) 0.0210(12) 0.0087(10) 0.0191(12)
C14 0.0223(11) 0.0286(12) 0.0270(12) 0.0128(10) 0.0075(9) 0.0128(9)
C15 0.0287(13) 0.0361(14) 0.0303(13) 0.0128(11) 0.0043(10) 0.0125(11)
C16 0.0246(13) 0.0471(16) 0.0410(15) 0.0232(13) 0.0037(11) 0.0107(12)
C17 0.0263(13) 0.0474(16) 0.0531(17) 0.0318(14) 0.0181(12) 0.0202(12)
C18 0.0338(14) 0.0375(15) 0.0464(16) 0.0163(13) 0.0176(12) 0.0205(12)
C19 0.0279(12) 0.0323(13) 0.0316(13) 0.0107(11) 0.0103(10) 0.0144(10)
C20 0.0484(19) 0.060(2) 0.0398(18) -0.0079(16) -0.0115(15) 0.0258(17)
C21 0.0311(15) 0.068(2) 0.083(3) 0.043(2) 0.0237(16) 0.0298(16)
C22 0.0384(16) 0.0414(17) 0.0405(16) -0.0049(13) 0.0029(13) 0.0198(13)
C23 0.0445(16) 0.0393(16) 0.0448(16) 0.0274(14) 0.0171(13) 0.0120(13)
C24 0.0585(19) 0.0283(14) 0.0404(16) 0.0181(12) 0.0159(14) 0.0138(13)
C25 0.0302(13) 0.0257(12) 0.0312(13) 0.0087(10) 0.0081(10) 0.0068(10)
C26 0.0341(14) 0.0353(15) 0.0412(16) 0.0126(12) 0.0109(12) 0.0115(12)
C27 0.0330(15) 0.0478(18) 0.0497(18) 0.0135(15) 0.0048(13) 0.0110(13)
C28 0.0386(16) 0.0414(17) 0.0431(17) 0.0065(14) 0.0029(13) 0.0020(13)
C29 0.0501(18) 0.0273(14) 0.0453(17) 0.0071(13) 0.0066(14) 0.0059(13)
C30 0.0398(15) 0.0290(14) 0.0381(15) 0.0099(12) 0.0066(12) 0.0107(12)
C31 0.0415(17) 0.0428(17) 0.064(2) 0.0168(16) 0.0099(15) 0.0221(14)
C32 0.052(2) 0.059(2) 0.067(3) 0.000(2) -0.008(2) -0.0029(19)
C33 0.059(2) 0.0293(16) 0.072(2) 0.0108(16) -0.0052(18) 0.0188(15)
C34 0.098(4) 0.149(5) 0.074(3) 0.072(4) 0.023(3) 0.084(4)
C35 0.071(3) 0.083(3) 0.126(4) 0.065(3) 0.027(3) 0.054(3)
C36 0.067(3) 0.038(2) 0.159(5) 0.020(3) 0.038(3) 0.033(2)
C37 0.064(2) 0.0356(18) 0.088(3) -0.0005(18) 0.041(2) 0.0161(17)
C38 0.0433(17) 0.0337(15) 0.0504(18) 0.0172(13) 0.0148(14) 0.0086(13)
C40 0.0377(15) 0.0529(18) 0.0394(16) 0.0131(14) 0.0177(13) 0.0219(14)
C39 0.0309(14) 0.0458(17) 0.0453(17) 0.0148(14) 0.0104(12) 0.0092(13)
C41 0.0430(17) 0.057(2) 0.0348(15) 0.0111(14) 0.0214(13) 0.0159(15)
C42 0.044(2) 0.127(4) 0.038(2) -0.014(2) 0.0071(17) -0.010(2)
C43 0.127(6) 0.162(7) 0.089(4) -0.035(4) -0.063(4) 0.098(5)
C44 0.059(2) 0.068(2) 0.0474(19) 0.0325(18) 0.0170(16) 0.0286(18)
Cl1 0.0992(9) 0.0890(8) 0.0549(6) 0.0063(6) 0.0007(6) 0.0513(7)
Cl2 0.1268(11) 0.0859(8) 0.0427(5) 0.0270(5) 0.0284(6) 0.0286(8)
S4 0.0473(5) 0.0466(5) 0.0526(5) 0.0132(4) 0.0087(4) 0.0142(4)
loop_
_atom_type_symbol
_atom_type_description
_atom_type_scat_dispersion_real
_atom_type_scat_dispersion_imag
_atom_type_scat_source
C C 0.0033 0.0016 'International Tables Vol C Tables 4.2.6.8 and 6.1.1.4'
H H 0.0000 0.0000 'International Tables Vol C Tables 4.2.6.8 and 6.1.1.4'
N N 0.0061 0.0033 'International Tables Vol C Tables 4.2.6.8 and 6.1.1.4'
O O 0.0106 0.0060 'International Tables Vol C Tables 4.2.6.8 and 6.1.1.4'
F F 0.0171 0.0103 'International Tables Vol C Tables 4.2.6.8 and 6.1.1.4'
S S 0.1246 0.1234 'International Tables Vol C Tables 4.2.6.8 and 6.1.1.4'
Cl Cl 0.1484 0.1585 'International Tables Vol C Tables 4.2.6.8 and 6.1.1.4'
Ca Ca 0.2262 0.3064 'International Tables Vol C Tables 4.2.6.8 and 6.1.1.4'
Ga Ga 0.2307 1.6083 'International Tables Vol C Tables 4.2.6.8 and 6.1.1.4'
loop_
_geom_angle_atom_site_label_1
_geom_angle_atom_site_label_2
_geom_angle_atom_site_label_3
_geom_angle
O7 Ga1 N2 96.82(8)
O7 Ga1 N3 105.22(8)
N2 Ga1 N3 111.47(9)
O7 Ga1 N4 97.62(8)
N2 Ga1 N4 125.65(10)
N3 Ga1 N4 114.51(9)
O7 Ga1 N1 173.31(8)
N2 Ga1 N1 79.93(8)
N3 Ga1 N1 81.44(8)
N4 Ga1 N1 79.81(9)
O7 Ca1 O1 73.88(7)
O7 Ca1 O3 75.12(6)
O1 Ca1 O3 93.59(7)
O7 Ca1 O9 136.26(8)
O1 Ca1 O9 77.81(8)
O3 Ca1 O9 139.83(9)
O7 Ca1 O8 84.73(9)
O1 Ca1 O8 93.79(10)
O3 Ca1 O8 155.65(9)
O9 Ca1 O8 64.50(10)
O7 Ca1 O11 127.18(7)
O1 Ca1 O11 152.06(7)
O3 Ca1 O11 77.35(7)
O9 Ca1 O11 92.06(8)
O8 Ca1 O11 105.34(10)
O7 Ca1 O10 144.89(7)
O1 Ca1 O10 86.66(7)
O3 Ca1 O10 77.32(7)
O9 Ca1 O10 63.18(9)
O8 Ca1 O10 126.27(9)
O11 Ca1 O10 65.65(7)
O7 Ca1 O12 75.00(7)
O1 Ca1 O12 143.82(8)
O3 Ca1 O12 95.85(8)
O9 Ca1 O12 114.28(9)
O8 Ca1 O12 65.30(10)
O11 Ca1 O12 64.05(7)
O10 Ca1 O12 129.49(7)
O2 S1 O1 114.98(14)
O2 S1 N2 111.96(14)
O1 S1 N2 107.56(11)
O2 S1 C3 107.57(13)
O1 S1 C3 106.51(12)
N2 S1 C3 107.92(13)
O4 S2 O3 115.84(12)
O4 S2 N3 111.50(12)
O3 S2 N3 108.20(11)
O4 S2 C14 107.89(12)
O3 S2 C14 105.50(11)
N3 S2 C14 107.45(11)
O6 S3 O5 114.94(14)
O6 S3 N4 110.81(13)
O5 S3 N4 109.16(12)
O6 S3 C25 107.11(13)
O5 S3 C25 106.46(13)
N4 S3 C25 108.04(12)
S1 O1 Ca1 156.20(12)
S2 O3 Ca1 134.21(11)
S3 O5 H7 108.2(14)
Ga1 O7 Ca1 126.94(9)
C43 O8 C34 119.1(5)
C43 O8 Ca1 113.8(3)
C34 O8 Ca1 114.8(3)
C35 O9 C36 115.1(3)
C35 O9 Ca1 119.9(3)
C36 O9 Ca1 121.2(3)
C38 O10 C37 113.8(3)
C38 O10 Ca1 115.44(18)
C37 O10 Ca1 109.8(2)
C40 O11 C39 114.0(2)
C40 O11 Ca1 110.20(17)
C39 O11 Ca1 114.59(17)
C41 O12 C42 111.7(3)
C41 O12 Ca1 119.39(18)
C42 O12 Ca1 116.4(2)
C23 N1 C12 112.4(2)
C23 N1 C1 111.3(2)
C12 N1 C1 111.3(2)
C23 N1 Ga1 107.10(16)
C12 N1 Ga1 105.44(15)
C1 N1 Ga1 108.99(16)
C2 N2 S1 113.94(19)
C2 N2 Ga1 115.06(17)
S1 N2 Ga1 122.14(12)
C13 N3 S2 111.63(17)
C13 N3 Ga1 114.07(16)
S2 N3 Ga1 129.57(12)
C24 N4 S3 110.63(18)
C24 N4 Ga1 116.54(18)
S3 N4 Ga1 128.88(13)
N1 C1 C2 108.1(2)
N2 C2 C1 108.1(2)
C8 C3 C4 120.9(3)
C8 C3 S1 119.4(2)
C4 C3 S1 119.7(2)
C5 C4 C3 117.2(3)
C5 C4 C9 117.0(3)
C3 C4 C9 125.8(3)
C6 C5 C4 123.3(3)
C5 C6 C7 118.3(3)
C5 C6 C10 121.4(4)
C7 C6 C10 120.3(4)
C6 C7 C8 122.4(4)
C7 C8 C3 118.0(3)
C7 C8 C11 116.6(3)
C3 C8 C11 125.4(3)
N1 C12 C13 109.2(2)
N3 C13 C12 107.8(2)
C15 C14 C19 120.2(2)
C15 C14 S2 121.93(19)
C19 C14 S2 117.79(19)
C16 C15 C14 117.6(3)
C16 C15 C20 116.6(3)
C14 C15 C20 125.8(3)
C17 C16 C15 123.3(3)
C16 C17 C18 117.8(2)
C16 C17 C21 121.3(3)
C18 C17 C21 120.9(3)
C17 C18 C19 122.2(3)
C18 C19 C14 118.8(2)
C18 C19 C22 117.4(2)
C14 C19 C22 123.8(2)
N1 C23 C24 109.5(2)
N4 C24 C23 108.1(2)
C26 C25 C30 120.9(3)
C26 C25 S3 117.8(2)
C30 C25 S3 121.1(2)
C27 C26 C25 118.3(3)
C27 C26 C31 117.5(3)
C25 C26 C31 124.2(3)
C26 C27 C28 122.4(3)
C29 C28 C27 118.4(3)
C29 C28 C32 120.5(3)
C27 C28 C32 121.2(4)
C28 C29 C30 122.5(3)
C29 C30 C25 117.5(3)
C29 C30 C33 115.8(3)
C25 C30 C33 126.7(3)
C35 C34 O8 108.6(4)
O9 C35 C34 108.9(4)
O9 C36 C37 109.6(3)
O10 C37 C36 110.6(4)
O10 C38 C39 106.4(2)
O11 C40 C41 106.9(3)
O11 C39 C38 106.7(2)
O12 C41 C40 107.8(2)
C43 C42 O12 114.5(4)
C42 C43 O8 116.4(6)
Cl2 C44 Cl1 112.8(2)
O15B S4 O14 84.9(5)
O15B S4 O13B 122.5(5)
O14 S4 O13B 128.9(5)
O15B S4 O14B 116.5(5)
O14 S4 O14B 32.2(3)
O13B S4 O14B 109.8(5)
O15B S4 O13 129.4(6)
O14 S4 O13 115.8(5)
O13B S4 O13 13.4(6)
O14B S4 O13 96.9(5)
O15B S4 O15 28.3(4)
O14 S4 O15 112.4(4)
O13B S4 O15 97.9(5)
O14B S4 O15 144.4(4)
O13 S4 O15 108.0(5)
O15B S4 C45 101.9(5)
O14 S4 C45 117.2(5)
O13B S4 C45 99.4(6)
O14B S4 C45 102.4(5)
O13 S4 C45 106.8(6)
O15 S4 C45 94.4(5)
O15B S4 C45B 111.8(6)
O14 S4 C45B 103.4(6)
O13B S4 C45B 103.7(6)
O14B S4 C45B 85.6(6)
O13 S4 C45B 107.4(6)
O15 S4 C45B 109.6(6)
C45 S4 C45B 16.9(5)
F2 C45 F3 99.6(8)
F2 C45 F1 115.2(8)
F3 C45 F1 91.9(8)
F2 C45 S4 111.2(7)
F3 C45 S4 120.0(7)
F1 C45 S4 116.8(7)
F3B C45B F1B 128.6(14)
F3B C45B F2B 110.9(12)
F1B C45B F2B 96.7(10)
F3B C45B S4 111.7(10)
F1B C45B S4 102.1(9)
F2B C45B S4 103.6(9)
loop_
_geom_bond_atom_site_label_1
_geom_bond_atom_site_label_2
_geom_bond_distance
Ga1 O7 1.8469(17)
Ga1 N2 1.986(2)
Ga1 N3 1.986(2)
Ga1 N4 2.010(2)
Ga1 N1 2.209(2)
Ca1 O7 2.2959(18)
Ca1 O1 2.3437(19)
Ca1 O3 2.3847(18)
Ca1 O9 2.446(2)
Ca1 O8 2.491(3)
Ca1 O11 2.492(2)
Ca1 O10 2.493(2)
Ca1 O12 2.507(2)
S1 O2 1.438(2)
S1 O1 1.452(2)
S1 N2 1.583(2)
S1 C3 1.798(3)
S2 O4 1.4347(19)
S2 O3 1.4522(19)
S2 N3 1.595(2)
S2 C14 1.793(2)
S3 O6 1.441(2)
S3 O5 1.448(2)
S3 N4 1.602(2)
S3 C25 1.792(3)
O5 H7 1.846(8)
O8 C43 1.388(6)
O8 C34 1.437(6)
O9 C35 1.397(5)
O9 C36 1.419(5)
O10 C38 1.418(4)
O10 C37 1.428(4)
O11 C40 1.430(4)
O11 C39 1.432(4)
O12 C41 1.431(4)
O12 C42 1.454(5)
N1 C23 1.476(4)
N1 C12 1.476(3)
N1 C1 1.485(3)
N2 C2 1.479(3)
N3 C13 1.475(3)
N4 C24 1.474(4)
C1 C2 1.520(4)
C3 C8 1.404(4)
C3 C4 1.412(4)
C4 C5 1.398(5)
C4 C9 1.516(6)
C5 C6 1.364(6)
C6 C7 1.375(6)
C6 C10 1.527(5)
C7 C8 1.398(4)
C8 C11 1.507(5)
C12 C13 1.514(4)
C14 C15 1.409(4)
C14 C19 1.411(3)
C15 C16 1.399(4)
C15 C20 1.514(4)
C16 C17 1.375(4)
C17 C18 1.383(4)
C17 C21 1.514(4)
C18 C19 1.391(4)
C19 C22 1.503(4)
C23 C24 1.516(4)
C25 C26 1.407(4)
C25 C30 1.413(4)
C26 C27 1.385(4)
C26 C31 1.513(4)
C27 C28 1.387(5)
C28 C29 1.377(5)
C28 C32 1.513(5)
C29 C30 1.401(4)
C30 C33 1.517(5)
C34 C35 1.437(7)
C36 C37 1.495(8)
C38 C39 1.502(5)
C40 C41 1.494(5)
C42 C43 1.360(8)
C44 Cl2 1.739(4)
C44 Cl1 1.741(4)
S4 O15B 1.371(8)
S4 O14 1.418(8)
S4 O13B 1.426(12)
S4 O14B 1.433(8)
S4 O13 1.445(12)
S4 O15 1.477(8)
S4 C45 1.715(10)
S4 C45B 1.866(14)
C45 F2 1.377(13)
C45 F3 1.387(13)
C45 F1 1.465(14)
C45B F3B 1.193(15)
C45B F1B 1.368(16)
C45B F2B 1.425(16)
