#------------------------------------------------------------------------------
#$Date: 2016-02-18 17:37:37 +0200 (Thu, 18 Feb 2016) $
#$Revision: 176729 $
#$URL: svn://www.crystallography.net/cod/cif/1/51/53/1515371.cif $
#------------------------------------------------------------------------------
#
# This file is available in the Crystallography Open Database (COD),
# http://www.crystallography.net/
#
# All data on this site have been placed in the public domain by the
# contributors.
#
data_1515371
loop_
_publ_author_name
'Busschaert, Nathalie'
'Bradberry, Samuel J.'
'Wenzel, Marco'
'Haynes, Cally J. E.'
'Hiscock, Jennifer R.'
'Kirby, Isabelle L.'
'Karagiannidis, Louise E.'
'Moore, Stephen J.'
'Wells, Neil J.'
'Herniman, Julie'
'Langley, G. John'
'Horton, Peter N.'
'Light, Mark E.'
'Marques, Igor'
'Costa, Paulo J.'
'F\'elix, V\'itor'
'Frey, Jeremy G.'
'Gale, Philip A.'
_publ_section_title
;
 Towards predictable transmembrane transport: QSAR analysis of anion
 binding and transport
;
_journal_issue                   8
_journal_name_full               'Chemical Science'
_journal_page_first              3036
_journal_paper_doi               10.1039/c3sc51023a
_journal_volume                  4
_journal_year                    2013
_chemical_compound_source
;
Nathalie Busschaert
Jennifer R. Hiscock
;
_chemical_formula_moiety         'C15 H19 F3 N2 O S'
_chemical_formula_sum            'C15 H19 F3 N2 O S'
_chemical_formula_weight         332.38
_chemical_name_systematic
;
?
;
_space_group_IT_number           2
_symmetry_cell_setting           triclinic
_symmetry_space_group_name_Hall  '-P 1'
_symmetry_space_group_name_H-M   'P -1'
_atom_sites_solution_hydrogens   geom
_atom_sites_solution_primary     direct
_atom_sites_solution_secondary   difmap
_audit_creation_method           SHELXL-97
_cell_angle_alpha                75.946(5)
_cell_angle_beta                 79.884(6)
_cell_angle_gamma                79.501(6)
_cell_formula_units_Z            2
_cell_length_a                   5.2392(4)
_cell_length_b                   11.0200(9)
_cell_length_c                   14.5788(11)
_cell_measurement_reflns_used    7183
_cell_measurement_temperature    100(2)
_cell_measurement_theta_max      27.5
_cell_measurement_theta_min      3.1
_cell_volume                     795.20(11)
_computing_cell_refinement
;
CrystalClear-SM Expert 2.0 r7 (Rigaku, 2011)
;
_computing_data_collection
;
CrystalClear-SM Expert 2.0 r7 (Rigaku, 2011)
;
_computing_data_reduction
;
CrystalClear-SM Expert 2.0 r7 (Rigaku, 2011)
;
_computing_publication_material  'WINGX (Farrugia, 1998)'
_computing_structure_refinement  'SHELXL-97 (Sheldrick, 2008)'
_computing_structure_solution    'SHELXS-97 (Sheldrick, 1997)'
_diffrn_ambient_temperature      100(2)
_diffrn_detector                 'CCD plate'
_diffrn_detector_area_resol_mean 28.5714
_diffrn_detector_type            'Rigaku HG Saturn724+ (2x2 bin mode)'
_diffrn_measured_fraction_theta_full 0.998
_diffrn_measured_fraction_theta_max 0.998
_diffrn_measurement_device       'four-circle \k diffractometer'
_diffrn_measurement_device_type  'Rigaku AFC12 (Right)'
_diffrn_measurement_method       'profile data from \w-scans'
_diffrn_measurement_specimen_support 'MiTeGen micromount'
_diffrn_radiation_collimation    'Confocal mirrors, VHF Varimax '
_diffrn_radiation_type           MoK\a
_diffrn_radiation_wavelength     0.71075
_diffrn_reflns_av_R_equivalents  0.0283
_diffrn_reflns_av_sigmaI/netI    0.0336
_diffrn_reflns_limit_h_max       6
_diffrn_reflns_limit_h_min       -4
_diffrn_reflns_limit_k_max       14
_diffrn_reflns_limit_k_min       -14
_diffrn_reflns_limit_l_max       18
_diffrn_reflns_limit_l_min       -17
_diffrn_reflns_number            7651
_diffrn_reflns_theta_full        27.48
_diffrn_reflns_theta_max         27.48
_diffrn_reflns_theta_min         3.12
_diffrn_source                   'Rotating Anode'
_diffrn_source_current           55.0
_diffrn_source_power             2.475
_diffrn_source_voltage           45.0
_exptl_absorpt_coefficient_mu    0.237
_exptl_absorpt_correction_T_max  0.9953
_exptl_absorpt_correction_T_min  0.9388
_exptl_absorpt_correction_type   multi-scan
_exptl_absorpt_process_details
;
Jacobson, R. (1998). REQAB. Private communication to the
Rigaku Corporation, Tokyo, Japan.
;
_exptl_crystal_colour            colorless
_exptl_crystal_density_diffrn    1.388
_exptl_crystal_density_method    'not measured'
_exptl_crystal_description       plate
_exptl_crystal_F_000             348
_exptl_crystal_size_max          0.27
_exptl_crystal_size_mid          0.10
_exptl_crystal_size_min          0.02
_refine_diff_density_max         0.387
_refine_diff_density_min         -0.219
_refine_diff_density_rms         0.056
_refine_ls_extinction_method     none
_refine_ls_goodness_of_fit_ref   1.086
_refine_ls_hydrogen_treatment    constr
_refine_ls_matrix_type           full
_refine_ls_number_parameters     199
_refine_ls_number_reflns         3632
_refine_ls_number_restraints     0
_refine_ls_restrained_S_all      1.086
_refine_ls_R_factor_all          0.0376
_refine_ls_R_factor_gt           0.0331
_refine_ls_shift/su_max          0.000
_refine_ls_shift/su_mean         0.000
_refine_ls_structure_factor_coef Fsqd
_refine_ls_weighting_details
'calc w=1/[\s^2^(Fo^2^)+(0.0430P)^2^+0.3403P] where P=(Fo^2^+2Fc^2^)/3'
_refine_ls_weighting_scheme      calc
_refine_ls_wR_factor_gt          0.0878
_refine_ls_wR_factor_ref         0.0952
_reflns_number_gt                3230
_reflns_number_total             3632
_reflns_threshold_expression     >2\s(I)
_cod_data_source_file            c3sc51023a.cif
_cod_data_source_block           p-COCF3
_cod_database_code               1515371
loop_
_symmetry_equiv_pos_as_xyz
'x, y, z'
'-x, -y, -z'
loop_
_atom_site_label
_atom_site_type_symbol
_atom_site_fract_x
_atom_site_fract_y
_atom_site_fract_z
_atom_site_U_iso_or_equiv
_atom_site_adp_type
_atom_site_occupancy
_atom_site_symmetry_multiplicity
_atom_site_calc_flag
_atom_site_refinement_flags
S1 S 0.03970(6) 0.05271(3) 0.13070(2) 0.01717(10) Uani 1 1 d .
C1 C -1.1141(3) 0.45002(14) -0.29474(10) 0.0203(3) Uani 1 1 d .
C2 C -1.0393(3) 0.48475(13) -0.20741(9) 0.0177(3) Uani 1 1 d .
C3 C -0.8567(3) 0.39218(12) -0.15046(9) 0.0155(3) Uani 1 1 d .
C4 C -0.7812(3) 0.26669(12) -0.15929(9) 0.0161(3) Uani 1 1 d .
H4 H -0.8506 0.2365 -0.2041 0.019 Uiso 1 1 calc R
C5 C -0.6066(3) 0.18646(12) -0.10329(9) 0.0158(3) Uani 1 1 d .
H5 H -0.5593 0.1009 -0.1089 0.019 Uiso 1 1 calc R
C6 C -0.4985(2) 0.22987(12) -0.03828(9) 0.0144(3) Uani 1 1 d .
C7 C -0.5706(3) 0.35575(13) -0.02995(9) 0.0180(3) Uani 1 1 d .
H7 H -0.4968 0.3866 0.0134 0.022 Uiso 1 1 calc R
C8 C -0.7491(3) 0.43505(13) -0.08488(10) 0.0185(3) Uani 1 1 d .
H8 H -0.7998 0.5200 -0.0781 0.022 Uiso 1 1 calc R
C9 C -0.2431(3) 0.14221(12) 0.09921(9) 0.0153(3) Uani 1 1 d .
C10 C -0.3712(3) 0.21616(14) 0.25149(10) 0.0218(3) Uani 1 1 d .
H10A H -0.4012 0.3059 0.2563 0.026 Uiso 1 1 calc R
H10B H -0.1885 0.1807 0.2623 0.026 Uiso 1 1 calc R
C11 C -0.5594(3) 0.14359(14) 0.32795(10) 0.0232(3) Uani 1 1 d .
H11A H -0.5558 0.1651 0.3898 0.028 Uiso 1 1 calc R
H11B H -0.7396 0.1713 0.3115 0.028 Uiso 1 1 calc R
C12 C -0.4953(3) 0.00121(14) 0.33937(10) 0.0223(3) Uani 1 1 d .
H12A H -0.3163 -0.0268 0.3569 0.027 Uiso 1 1 calc R
H12B H -0.4962 -0.0202 0.2773 0.027 Uiso 1 1 calc R
C13 C -0.6865(3) -0.07076(15) 0.41475(10) 0.0251(3) Uani 1 1 d .
H13A H -0.7003 -0.0426 0.4752 0.030 Uiso 1 1 calc R
H13B H -0.8621 -0.0502 0.3938 0.030 Uiso 1 1 calc R
C14 C -0.6032(3) -0.21257(16) 0.43270(11) 0.0299(3) Uani 1 1 d .
H14A H -0.4297 -0.2328 0.4553 0.036 Uiso 1 1 calc R
H14B H -0.5833 -0.2398 0.3716 0.036 Uiso 1 1 calc R
C15 C -0.7945(4) -0.28763(19) 0.50555(14) 0.0404(4) Uani 1 1 d .
H15A H -0.7292 -0.3782 0.5134 0.061 Uiso 1 1 calc R
H15B H -0.9662 -0.2696 0.4832 0.061 Uiso 1 1 calc R
H15C H -0.8113 -0.2634 0.5669 0.061 Uiso 1 1 calc R
N1 N -0.3092(2) 0.14563(10) 0.01188(8) 0.0153(2) Uani 1 1 d .
H1 H -0.2203 0.0864 -0.0171 0.018 Uiso 1 1 calc R
N2 N -0.4078(2) 0.20854(11) 0.15570(8) 0.0198(3) Uani 1 1 d .
H2 H -0.5513 0.2516 0.1337 0.024 Uiso 1 1 calc R
O1 O -1.1326(2) 0.58772(10) -0.19152(8) 0.0257(2) Uani 1 1 d .
F1 F -1.2616(2) 0.54608(9) -0.34398(7) 0.0338(2) Uani 1 1 d .
F2 F -0.90236(17) 0.41751(9) -0.35379(6) 0.0273(2) Uani 1 1 d .
F3 F -1.24867(18) 0.35233(9) -0.26731(7) 0.0303(2) Uani 1 1 d .
loop_
_atom_site_aniso_label
_atom_site_aniso_U_11
_atom_site_aniso_U_22
_atom_site_aniso_U_33
_atom_site_aniso_U_23
_atom_site_aniso_U_13
_atom_site_aniso_U_12
S1 0.01466(16) 0.01846(17) 0.01810(17) -0.00578(12) -0.00435(12) 0.00277(12)
C1 0.0195(7) 0.0215(7) 0.0191(6) -0.0042(5) -0.0052(5) 0.0014(5)
C2 0.0161(6) 0.0179(6) 0.0188(6) -0.0040(5) -0.0031(5) -0.0011(5)
C3 0.0148(6) 0.0146(6) 0.0163(6) -0.0027(5) -0.0025(5) -0.0010(5)
C4 0.0163(6) 0.0166(6) 0.0164(6) -0.0048(5) -0.0028(5) -0.0032(5)
C5 0.0172(6) 0.0122(6) 0.0176(6) -0.0037(5) -0.0014(5) -0.0017(5)
C6 0.0136(6) 0.0139(6) 0.0140(6) -0.0012(4) -0.0012(5) -0.0011(5)
C7 0.0216(7) 0.0156(6) 0.0186(6) -0.0056(5) -0.0072(5) -0.0009(5)
C8 0.0216(7) 0.0129(6) 0.0219(6) -0.0058(5) -0.0058(5) 0.0006(5)
C9 0.0156(6) 0.0131(6) 0.0171(6) -0.0028(5) -0.0026(5) -0.0020(5)
C10 0.0236(7) 0.0222(7) 0.0204(7) -0.0096(5) -0.0068(5) 0.0046(6)
C11 0.0222(7) 0.0283(8) 0.0182(6) -0.0085(5) -0.0041(5) 0.0043(6)
C12 0.0194(7) 0.0274(8) 0.0201(7) -0.0079(6) -0.0024(5) -0.0003(6)
C13 0.0194(7) 0.0358(9) 0.0206(7) -0.0080(6) -0.0020(5) -0.0036(6)
C14 0.0328(8) 0.0329(9) 0.0271(8) -0.0112(6) -0.0009(6) -0.0093(7)
C15 0.0408(10) 0.0459(11) 0.0375(10) -0.0079(8) -0.0014(8) -0.0196(8)
N1 0.0165(5) 0.0134(5) 0.0155(5) -0.0045(4) -0.0037(4) 0.0022(4)
N2 0.0182(6) 0.0230(6) 0.0168(5) -0.0063(4) -0.0059(4) 0.0062(5)
O1 0.0287(6) 0.0198(5) 0.0291(5) -0.0086(4) -0.0127(4) 0.0075(4)
F1 0.0397(5) 0.0331(5) 0.0276(5) -0.0088(4) -0.0196(4) 0.0153(4)
F2 0.0273(5) 0.0320(5) 0.0197(4) -0.0078(3) 0.0002(3) 0.0023(4)
F3 0.0292(5) 0.0370(5) 0.0302(5) -0.0071(4) -0.0093(4) -0.0142(4)
loop_
_atom_type_symbol
_atom_type_description
_atom_type_scat_dispersion_real
_atom_type_scat_dispersion_imag
_atom_type_scat_source
C C 0.0033 0.0016 'International Tables Vol C Tables 4.2.6.8 and 6.1.1.4'
H H 0.0000 0.0000 'International Tables Vol C Tables 4.2.6.8 and 6.1.1.4'
N N 0.0061 0.0033 'International Tables Vol C Tables 4.2.6.8 and 6.1.1.4'
O O 0.0106 0.0060 'International Tables Vol C Tables 4.2.6.8 and 6.1.1.4'
F F 0.0171 0.0103 'International Tables Vol C Tables 4.2.6.8 and 6.1.1.4'
S S 0.1246 0.1234 'International Tables Vol C Tables 4.2.6.8 and 6.1.1.4'
loop_
_geom_angle_atom_site_label_1
_geom_angle_atom_site_label_2
_geom_angle_atom_site_label_3
_geom_angle
F1 C1 F2 107.68(11)
F1 C1 F3 107.77(12)
F2 C1 F3 107.61(12)
F1 C1 C2 111.50(12)
F2 C1 C2 111.36(11)
F3 C1 C2 110.75(11)
O1 C2 C3 124.42(13)
O1 C2 C1 117.49(12)
C3 C2 C1 118.08(11)
C4 C3 C8 118.83(12)
C4 C3 C2 124.27(12)
C8 C3 C2 116.89(12)
C5 C4 C3 120.35(12)
C5 C4 H4 119.8
C3 C4 H4 119.8
C4 C5 C6 120.62(12)
C4 C5 H5 119.7
C6 C5 H5 119.7
C5 C6 C7 119.30(12)
C5 C6 N1 117.63(11)
C7 C6 N1 122.95(12)
C8 C7 C6 119.86(12)
C8 C7 H7 120.1
C6 C7 H7 120.1
C7 C8 C3 121.02(12)
C7 C8 H8 119.5
C3 C8 H8 119.5
N2 C9 N1 117.85(12)
N2 C9 S1 123.41(10)
N1 C9 S1 118.73(10)
N2 C10 C11 111.09(12)
N2 C10 H10A 109.4
C11 C10 H10A 109.4
N2 C10 H10B 109.4
C11 C10 H10B 109.4
H10A C10 H10B 108.0
C12 C11 C10 113.49(11)
C12 C11 H11A 108.9
C10 C11 H11A 108.9
C12 C11 H11B 108.9
C10 C11 H11B 108.9
H11A C11 H11B 107.7
C11 C12 C13 113.28(12)
C11 C12 H12A 108.9
C13 C12 H12A 108.9
C11 C12 H12B 108.9
C13 C12 H12B 108.9
H12A C12 H12B 107.7
C14 C13 C12 112.51(12)
C14 C13 H13A 109.1
C12 C13 H13A 109.1
C14 C13 H13B 109.1
C12 C13 H13B 109.1
H13A C13 H13B 107.8
C13 C14 C15 113.85(14)
C13 C14 H14A 108.8
C15 C14 H14A 108.8
C13 C14 H14B 108.8
C15 C14 H14B 108.8
H14A C14 H14B 107.7
C14 C15 H15A 109.5
C14 C15 H15B 109.5
H15A C15 H15B 109.5
C14 C15 H15C 109.5
H15A C15 H15C 109.5
H15B C15 H15C 109.5
C9 N1 C6 129.35(11)
C9 N1 H1 115.3
C6 N1 H1 115.3
C9 N2 C10 125.72(12)
C9 N2 H2 117.1
C10 N2 H2 117.1
loop_
_geom_bond_atom_site_label_1
_geom_bond_atom_site_label_2
_geom_bond_distance
S1 C9 1.6928(13)
C1 F1 1.3269(16)
C1 F2 1.3302(16)
C1 F3 1.3358(17)
C1 C2 1.5452(19)
C2 O1 1.2108(17)
C2 C3 1.4688(18)
C3 C4 1.3982(18)
C3 C8 1.4001(19)
C4 C5 1.3793(19)
C4 H4 0.9500
C5 C6 1.3985(19)
C5 H5 0.9500
C6 C7 1.3987(18)
C6 N1 1.4032(16)
C7 C8 1.3802(19)
C7 H7 0.9500
C8 H8 0.9500
C9 N2 1.3305(17)
C9 N1 1.3672(17)
C10 N2 1.4666(17)
C10 C11 1.524(2)
C10 H10A 0.9900
C10 H10B 0.9900
C11 C12 1.518(2)
C11 H11A 0.9900
C11 H11B 0.9900
C12 C13 1.523(2)
C12 H12A 0.9900
C12 H12B 0.9900
C13 C14 1.515(2)
C13 H13A 0.9900
C13 H13B 0.9900
C14 C15 1.523(2)
C14 H14A 0.9900
C14 H14B 0.9900
C15 H15A 0.9800
C15 H15B 0.9800
C15 H15C 0.9800
N1 H1 0.8800
N2 H2 0.8800
loop_
_geom_hbond_atom_site_label_D
_geom_hbond_atom_site_label_H
_geom_hbond_atom_site_label_A
_geom_hbond_distance_DH
_geom_hbond_distance_HA
_geom_hbond_distance_DA
_geom_hbond_angle_DHA
_geom_hbond_site_symmetry_A
N1 H1 S1 0.88 2.48 3.3380(11) 165.4 2
N2 H2 O1 0.88 2.40 3.0444(15) 130.4 2_365
loop_
_geom_torsion_atom_site_label_1
_geom_torsion_atom_site_label_2
_geom_torsion_atom_site_label_3
_geom_torsion_atom_site_label_4
_geom_torsion
F1 C1 C2 O1 4.25(18)
F2 C1 C2 O1 124.55(13)
F3 C1 C2 O1 -115.75(14)
F1 C1 C2 C3 -174.62(11)
F2 C1 C2 C3 -54.32(16)
F3 C1 C2 C3 65.38(15)
O1 C2 C3 C4 169.51(13)
C1 C2 C3 C4 -11.70(19)
O1 C2 C3 C8 -11.9(2)
C1 C2 C3 C8 166.89(12)
C8 C3 C4 C5 0.87(19)
C2 C3 C4 C5 179.44(12)
C3 C4 C5 C6 -1.26(19)
C4 C5 C6 C7 0.44(19)
C4 C5 C6 N1 -175.91(11)
C5 C6 C7 C8 0.76(19)
N1 C6 C7 C8 176.90(12)
C6 C7 C8 C3 -1.2(2)
C4 C3 C8 C7 0.3(2)
C2 C3 C8 C7 -178.34(12)
N2 C10 C11 C12 70.22(15)
C10 C11 C12 C13 -179.08(12)
C11 C12 C13 C14 -173.82(13)
C12 C13 C14 C15 -178.23(14)
N2 C9 N1 C6 15.5(2)
S1 C9 N1 C6 -165.47(10)
C5 C6 N1 C9 -153.53(13)
C7 C6 N1 C9 30.3(2)
N1 C9 N2 C10 179.79(12)
S1 C9 N2 C10 0.8(2)
C11 C10 N2 C9 -108.18(15)
