#------------------------------------------------------------------------------
#$Date: 2016-02-18 17:37:37 +0200 (Thu, 18 Feb 2016) $
#$Revision: 176729 $
#$URL: svn://www.crystallography.net/cod/cif/1/51/51/1515115.cif $
#------------------------------------------------------------------------------
#
# This file is available in the Crystallography Open Database (COD),
# http://www.crystallography.net/
#
# All data on this site have been placed in the public domain by the
# contributors.
#
data_1515115
loop_
_publ_author_name
'Wiggins, Kelly M.'
'Moerdyk, Jonathan P.'
'Bielawski, Christopher W.'
_publ_section_title
;
 Homonuclear bond activation using a stable N,N&#x2032;-diamidocarbene
;
_journal_issue                   10
_journal_name_full               'Chemical Science'
_journal_page_first              2986
_journal_paper_doi               10.1039/c2sc20639k
_journal_volume                  3
_journal_year                    2012
_chemical_formula_moiety         'C36 H38 N2 O2 S2'
_chemical_formula_sum            'C36 H38 N2 O2 S2'
_chemical_formula_weight         594.80
_chemical_name_common            DACDiphenylsulfide
_chemical_name_systematic
;
?
;
_space_group_IT_number           2
_symmetry_cell_setting           triclinic
_symmetry_space_group_name_Hall  '-P 1'
_symmetry_space_group_name_H-M   'P -1'
_atom_sites_solution_hydrogens   geom
_atom_sites_solution_primary     direct
_atom_sites_solution_secondary   difmap
_audit_creation_method           SHELXL-97
_cell_angle_alpha                69.777(3)
_cell_angle_beta                 79.796(3)
_cell_angle_gamma                85.828(3)
_cell_formula_units_Z            2
_cell_length_a                   11.0307(15)
_cell_length_b                   12.1360(16)
_cell_length_c                   12.8498(17)
_cell_measurement_temperature    150(2)
_cell_volume                     1588.5(4)
_computing_cell_refinement       'CrystalClear (Rigaku Inc., 2008)'
_computing_data_collection       'CrystalClear (Rigaku Inc., 2008)'
_computing_data_reduction        'CrystalClear (Rigaku Inc., 2008)'
_computing_structure_refinement  'SHELXL-97 (Sheldrick, 1997)'
_computing_structure_solution    'SHELXS-97 (Sheldrick, 1990)'
_diffrn_ambient_temperature      150(2)
_diffrn_measured_fraction_theta_full 0.998
_diffrn_measured_fraction_theta_max 0.998
_diffrn_measurement_device_type  'CCD area detector'
_diffrn_measurement_method       'phi and omega scans'
_diffrn_radiation_monochromator  graphite
_diffrn_radiation_source         'fine-focus sealed tube'
_diffrn_radiation_type           MoK\a
_diffrn_radiation_wavelength     0.71075
_diffrn_reflns_av_R_equivalents  0.0928
_diffrn_reflns_av_sigmaI/netI    0.1125
_diffrn_reflns_limit_h_max       13
_diffrn_reflns_limit_h_min       -13
_diffrn_reflns_limit_k_max       14
_diffrn_reflns_limit_k_min       -14
_diffrn_reflns_limit_l_max       15
_diffrn_reflns_limit_l_min       -15
_diffrn_reflns_number            14027
_diffrn_reflns_theta_full        25.00
_diffrn_reflns_theta_max         25.00
_diffrn_reflns_theta_min         3.28
_exptl_absorpt_coefficient_mu    0.202
_exptl_absorpt_correction_type   none
_exptl_absorpt_process_details   none
_exptl_crystal_colour            Colorless
_exptl_crystal_density_diffrn    1.244
_exptl_crystal_density_method    'not measured'
_exptl_crystal_description       Block
_exptl_crystal_F_000             632
_exptl_crystal_size_max          0.19
_exptl_crystal_size_mid          0.15
_exptl_crystal_size_min          0.08
_refine_diff_density_max         0.269
_refine_diff_density_min         -0.285
_refine_diff_density_rms         0.063
_refine_ls_extinction_method     none
_refine_ls_goodness_of_fit_ref   1.006
_refine_ls_hydrogen_treatment    constr
_refine_ls_matrix_type           full
_refine_ls_number_parameters     387
_refine_ls_number_reflns         5586
_refine_ls_number_restraints     0
_refine_ls_restrained_S_all      1.006
_refine_ls_R_factor_all          0.1148
_refine_ls_R_factor_gt           0.0644
_refine_ls_shift/su_max          0.000
_refine_ls_shift/su_mean         0.000
_refine_ls_structure_factor_coef Fsqd
_refine_ls_weighting_details
'calc w=1/[\s^2^(Fo^2^)+(0.0587P)^2^+0.8658P] where P=(Fo^2^+2Fc^2^)/3'
_refine_ls_weighting_scheme      calc
_refine_ls_wR_factor_gt          0.1335
_refine_ls_wR_factor_ref         0.1587
_reflns_number_gt                3546
_reflns_number_total             5586
_reflns_threshold_expression     >2sigma(I)
_cod_data_source_file            c2sc20639k.txt
_cod_data_source_block           "'DACDiphenylsulfide'"
_cod_depositor_comments
;
The following automatic conversions were performed:

'_symmetry_cell_setting' value 'Triclinic' changed to 'triclinic'
according to
/usr/data/users/saulius/automatic-downloads/retrospective/RSC/lib/dictionaries/cif_core.dic
dictionary named 'cif_core.dic' version 2.4.2 from 2011-04-26.

Automatic conversion script
Id: cif_fix_values 2281 2013-09-26 08:29:07Z andrius 
;
_cod_original_sg_symbol_H-M      P-1
_cod_database_code               1515115
loop_
_symmetry_equiv_pos_as_xyz
'x, y, z'
'-x, -y, -z'
loop_
_atom_site_label
_atom_site_type_symbol
_atom_site_fract_x
_atom_site_fract_y
_atom_site_fract_z
_atom_site_U_iso_or_equiv
_atom_site_adp_type
_atom_site_occupancy
_atom_site_symmetry_multiplicity
_atom_site_calc_flag
_atom_site_refinement_flags
S1 S 0.28273(8) 0.32250(9) 0.33427(8) 0.0285(3) Uani 1 1 d .
N1 N 0.1282(2) 0.2819(2) 0.2152(2) 0.0207(7) Uani 1 1 d .
C1 C 0.2505(3) 0.2546(3) 0.2376(3) 0.0194(8) Uani 1 1 d .
O1 O -0.0439(2) 0.2670(2) 0.1507(2) 0.0381(7) Uani 1 1 d .
S2 S 0.30804(9) 0.00283(9) 0.06464(8) 0.0342(3) Uani 1 1 d .
O2 O 0.1337(2) 0.0049(2) 0.2355(2) 0.0301(6) Uani 1 1 d .
N2 N 0.3195(2) 0.1905(2) 0.1931(2) 0.0206(7) Uani 1 1 d .
C2 C 0.0638(3) 0.2406(3) 0.1499(3) 0.0249(8) Uani 1 1 d .
C3 C 0.1279(3) 0.1755(3) 0.0716(3) 0.0235(8) Uani 1 1 d .
C4 C 0.1832(3) 0.0587(3) 0.1422(3) 0.0260(8) Uani 1 1 d .
C5 C 0.0288(3) 0.1367(3) 0.0214(3) 0.0341(10) Uani 1 1 d .
H5A H -0.0281 0.0857 0.0810 0.051 Uiso 1 1 calc R
H5B H 0.0673 0.0957 -0.0279 0.051 Uiso 1 1 calc R
H5C H -0.0146 0.2046 -0.0201 0.051 Uiso 1 1 calc R
C6 C 0.2172(3) 0.2583(3) -0.0246(3) 0.0319(9) Uani 1 1 d .
H6A H 0.2796 0.2828 0.0059 0.048 Uiso 1 1 calc R
H6B H 0.1727 0.3259 -0.0651 0.048 Uiso 1 1 calc R
H6C H 0.2552 0.2179 -0.0746 0.048 Uiso 1 1 calc R
C7 C 0.0531(3) 0.3576(3) 0.2688(3) 0.0211(8) Uani 1 1 d .
C8 C -0.0164(3) 0.3083(3) 0.3756(3) 0.0263(8) Uani 1 1 d .
C9 C -0.0850(3) 0.3855(3) 0.4227(3) 0.0306(9) Uani 1 1 d .
H9A H -0.1310 0.3553 0.4942 0.037 Uiso 1 1 calc R
C10 C -0.0868(3) 0.5062(4) 0.3666(3) 0.0324(9) Uani 1 1 d .
C11 C -0.0175(3) 0.5498(3) 0.2612(3) 0.0315(9) Uani 1 1 d .
H11A H -0.0183 0.6304 0.2232 0.038 Uiso 1 1 calc R
C12 C 0.0538(3) 0.4778(3) 0.2094(3) 0.0234(8) Uani 1 1 d .
C13 C 0.1312(3) 0.5275(3) 0.0950(3) 0.0339(10) Uani 1 1 d .
H13A H 0.1059 0.4945 0.0443 0.051 Uiso 1 1 calc R
H13B H 0.2163 0.5084 0.1005 0.051 Uiso 1 1 calc R
H13C H 0.1205 0.6113 0.0671 0.051 Uiso 1 1 calc R
C14 C -0.1655(4) 0.5867(4) 0.4189(4) 0.0523(12) Uani 1 1 d .
H14A H -0.1585 0.6659 0.3674 0.078 Uiso 1 1 calc R
H14B H -0.1380 0.5822 0.4871 0.078 Uiso 1 1 calc R
H14C H -0.2499 0.5630 0.4354 0.078 Uiso 1 1 calc R
C15 C -0.0173(4) 0.1783(3) 0.4376(3) 0.0380(10) Uani 1 1 d .
H15A H -0.0359 0.1380 0.3901 0.057 Uiso 1 1 calc R
H15B H -0.0786 0.1607 0.5040 0.057 Uiso 1 1 calc R
H15C H 0.0622 0.1531 0.4585 0.057 Uiso 1 1 calc R
C16 C 0.4341(3) 0.1415(3) 0.2231(3) 0.0192(8) Uani 1 1 d .
C17 C 0.4382(3) 0.0512(3) 0.3250(3) 0.0244(8) Uani 1 1 d .
C18 C 0.5526(3) 0.0003(3) 0.3467(3) 0.0276(9) Uani 1 1 d .
H18A H 0.5562 -0.0600 0.4146 0.033 Uiso 1 1 calc R
C19 C 0.6613(3) 0.0351(3) 0.2723(3) 0.0282(9) Uani 1 1 d .
C20 C 0.6523(3) 0.1238(3) 0.1710(3) 0.0285(9) Uani 1 1 d .
H20A H 0.7237 0.1485 0.1192 0.034 Uiso 1 1 calc R
C21 C 0.5417(3) 0.1768(3) 0.1439(3) 0.0224(8) Uani 1 1 d .
C22 C 0.5364(3) 0.2704(3) 0.0318(3) 0.0298(9) Uani 1 1 d .
H22A H 0.6184 0.2957 -0.0046 0.045 Uiso 1 1 calc R
H22B H 0.4883 0.3359 0.0425 0.045 Uiso 1 1 calc R
H22C H 0.4992 0.2393 -0.0142 0.045 Uiso 1 1 calc R
C23 C 0.7831(4) -0.0241(4) 0.2984(4) 0.0439(11) Uani 1 1 d .
H23A H 0.7709 -0.0824 0.3721 0.066 Uiso 1 1 calc R
H23B H 0.8400 0.0334 0.2956 0.066 Uiso 1 1 calc R
H23C H 0.8157 -0.0609 0.2439 0.066 Uiso 1 1 calc R
C24 C 0.3241(3) 0.0030(3) 0.4076(3) 0.0346(10) Uani 1 1 d .
H24A H 0.2837 0.0637 0.4336 0.052 Uiso 1 1 calc R
H24B H 0.3462 -0.0610 0.4702 0.052 Uiso 1 1 calc R
H24C H 0.2694 -0.0244 0.3716 0.052 Uiso 1 1 calc R
C25 C 0.4436(3) 0.3485(3) 0.2959(3) 0.0226(8) Uani 1 1 d .
C26 C 0.5232(4) 0.2902(3) 0.3706(3) 0.0346(10) Uani 1 1 d .
H26A H 0.4933 0.2335 0.4388 0.042 Uiso 1 1 calc R
C27 C 0.6464(4) 0.3167(4) 0.3431(4) 0.0479(12) Uani 1 1 d .
H27A H 0.6994 0.2780 0.3934 0.057 Uiso 1 1 calc R
C28 C 0.6921(4) 0.3996(4) 0.2425(4) 0.0392(10) Uani 1 1 d .
H28A H 0.7760 0.4149 0.2235 0.047 Uiso 1 1 calc R
C29 C 0.6128(4) 0.4600(3) 0.1699(3) 0.0351(10) Uani 1 1 d .
H29A H 0.6433 0.5172 0.1022 0.042 Uiso 1 1 calc R
C30 C 0.4888(3) 0.4364(3) 0.1968(3) 0.0275(9) Uani 1 1 d .
H30A H 0.4354 0.4794 0.1485 0.033 Uiso 1 1 calc R
C31 C 0.3371(4) -0.1336(3) 0.1664(3) 0.0306(9) Uani 1 1 d .
C32 C 0.4505(4) -0.1514(3) 0.2031(3) 0.0370(10) Uani 1 1 d .
H32A H 0.5074 -0.0910 0.1772 0.044 Uiso 1 1 calc R
C33 C 0.4784(4) -0.2588(4) 0.2780(4) 0.0439(11) Uani 1 1 d .
H33A H 0.5542 -0.2709 0.3027 0.053 Uiso 1 1 calc R
C34 C 0.3938(4) -0.3485(4) 0.3166(4) 0.0455(11) Uani 1 1 d .
H34A H 0.4129 -0.4210 0.3670 0.055 Uiso 1 1 calc R
C35 C 0.2819(4) -0.3308(4) 0.2806(4) 0.0444(11) Uani 1 1 d .
H35A H 0.2255 -0.3916 0.3062 0.053 Uiso 1 1 calc R
C36 C 0.2526(4) -0.2238(3) 0.2067(3) 0.0362(10) Uani 1 1 d .
H36A H 0.1759 -0.2118 0.1838 0.043 Uiso 1 1 calc R
loop_
_atom_site_aniso_label
_atom_site_aniso_U_11
_atom_site_aniso_U_22
_atom_site_aniso_U_33
_atom_site_aniso_U_23
_atom_site_aniso_U_13
_atom_site_aniso_U_12
S1 0.0214(5) 0.0408(6) 0.0299(6) -0.0213(5) -0.0011(4) -0.0042(4)
N1 0.0166(16) 0.0205(16) 0.0278(17) -0.0118(13) -0.0032(12) -0.0017(12)
C1 0.022(2) 0.0143(18) 0.023(2) -0.0057(15) -0.0030(15) -0.0063(14)
O1 0.0243(16) 0.0516(18) 0.0516(18) -0.0308(15) -0.0153(13) 0.0053(13)
S2 0.0408(6) 0.0289(6) 0.0307(6) -0.0129(5) 0.0057(4) -0.0012(4)
O2 0.0313(15) 0.0284(15) 0.0295(16) -0.0107(13) 0.0013(12) -0.0060(11)
N2 0.0189(16) 0.0208(16) 0.0217(16) -0.0076(13) -0.0011(12) -0.0012(12)
C2 0.023(2) 0.024(2) 0.028(2) -0.0086(17) -0.0046(16) -0.0058(16)
C3 0.028(2) 0.0207(19) 0.024(2) -0.0097(16) -0.0032(15) -0.0044(15)
C4 0.026(2) 0.028(2) 0.027(2) -0.0138(18) -0.0018(16) -0.0071(16)
C5 0.037(2) 0.037(2) 0.034(2) -0.0157(19) -0.0100(18) -0.0077(18)
C6 0.040(2) 0.030(2) 0.024(2) -0.0069(18) -0.0026(17) -0.0061(18)
C7 0.0131(18) 0.028(2) 0.026(2) -0.0148(17) -0.0019(14) 0.0008(15)
C8 0.018(2) 0.033(2) 0.030(2) -0.0104(18) -0.0049(16) -0.0026(16)
C9 0.022(2) 0.043(3) 0.030(2) -0.017(2) -0.0025(16) -0.0004(17)
C10 0.024(2) 0.046(3) 0.036(2) -0.024(2) -0.0082(18) 0.0059(18)
C11 0.027(2) 0.029(2) 0.044(3) -0.0186(19) -0.0121(18) 0.0056(17)
C12 0.0173(19) 0.028(2) 0.027(2) -0.0107(17) -0.0065(15) 0.0017(15)
C13 0.036(2) 0.029(2) 0.035(2) -0.0093(19) -0.0012(18) -0.0015(18)
C14 0.044(3) 0.060(3) 0.064(3) -0.040(3) -0.003(2) 0.013(2)
C15 0.038(2) 0.036(2) 0.033(2) -0.007(2) 0.0043(18) -0.0058(19)
C16 0.0190(19) 0.0194(19) 0.022(2) -0.0098(16) -0.0026(14) -0.0011(14)
C17 0.026(2) 0.024(2) 0.023(2) -0.0077(17) -0.0019(15) -0.0028(15)
C18 0.034(2) 0.020(2) 0.027(2) -0.0032(17) -0.0081(17) 0.0011(16)
C19 0.025(2) 0.026(2) 0.033(2) -0.0103(18) -0.0039(17) 0.0005(16)
C20 0.020(2) 0.032(2) 0.032(2) -0.0145(19) 0.0071(16) -0.0029(16)
C21 0.021(2) 0.026(2) 0.023(2) -0.0117(16) -0.0025(15) 0.0017(15)
C22 0.025(2) 0.037(2) 0.025(2) -0.0085(18) -0.0010(16) -0.0018(17)
C23 0.029(2) 0.048(3) 0.048(3) -0.009(2) -0.008(2) 0.007(2)
C24 0.030(2) 0.042(2) 0.024(2) -0.0007(19) -0.0026(17) -0.0088(18)
C25 0.0179(19) 0.023(2) 0.030(2) -0.0141(17) -0.0023(15) -0.0026(15)
C26 0.038(3) 0.029(2) 0.032(2) 0.0021(18) -0.0140(18) -0.0096(18)
C27 0.033(3) 0.045(3) 0.060(3) -0.002(2) -0.022(2) -0.008(2)
C28 0.025(2) 0.043(3) 0.052(3) -0.015(2) -0.008(2) -0.0125(19)
C29 0.033(2) 0.032(2) 0.036(2) -0.0041(19) -0.0046(19) -0.0114(18)
C30 0.030(2) 0.020(2) 0.034(2) -0.0092(18) -0.0089(17) 0.0006(16)
C31 0.033(2) 0.027(2) 0.033(2) -0.0169(18) 0.0055(17) -0.0002(17)
C32 0.038(3) 0.031(2) 0.045(3) -0.021(2) 0.0025(19) -0.0036(18)
C33 0.046(3) 0.042(3) 0.049(3) -0.020(2) -0.014(2) 0.010(2)
C34 0.066(3) 0.028(2) 0.041(3) -0.010(2) -0.008(2) 0.004(2)
C35 0.051(3) 0.031(2) 0.050(3) -0.016(2) 0.003(2) -0.005(2)
C36 0.037(2) 0.032(2) 0.043(3) -0.021(2) 0.0014(19) -0.0015(19)
loop_
_atom_type_symbol
_atom_type_description
_atom_type_scat_dispersion_real
_atom_type_scat_dispersion_imag
_atom_type_scat_source
C C 0.0033 0.0016 'International Tables Vol C Tables 4.2.6.8 and 6.1.1.4'
H H 0.0000 0.0000 'International Tables Vol C Tables 4.2.6.8 and 6.1.1.4'
N N 0.0061 0.0033 'International Tables Vol C Tables 4.2.6.8 and 6.1.1.4'
O O 0.0106 0.0060 'International Tables Vol C Tables 4.2.6.8 and 6.1.1.4'
S S 0.1246 0.1234 'International Tables Vol C Tables 4.2.6.8 and 6.1.1.4'
loop_
_geom_angle_atom_site_label_1
_geom_angle_atom_site_label_2
_geom_angle_atom_site_label_3
_geom_angle
C25 S1 C1 103.48(15)
C2 N1 C1 128.5(3)
C2 N1 C7 113.3(3)
C1 N1 C7 118.2(3)
N2 C1 N1 120.9(3)
N2 C1 S1 128.8(3)
N1 C1 S1 110.3(2)
C31 S2 C4 101.05(17)
C1 N2 C16 125.7(3)
O1 C2 N1 117.1(3)
O1 C2 C3 119.8(3)
N1 C2 C3 122.8(3)
C2 C3 C5 108.3(3)
C2 C3 C6 109.8(3)
C5 C3 C6 108.9(3)
C2 C3 C4 109.2(3)
C5 C3 C4 103.9(3)
C6 C3 C4 116.4(3)
O2 C4 C3 121.1(3)
O2 C4 S2 124.3(3)
C3 C4 S2 113.8(3)
C3 C5 H5A 109.5
C3 C5 H5B 109.5
H5A C5 H5B 109.5
C3 C5 H5C 109.5
H5A C5 H5C 109.5
H5B C5 H5C 109.5
C3 C6 H6A 109.5
C3 C6 H6B 109.5
H6A C6 H6B 109.5
C3 C6 H6C 109.5
H6A C6 H6C 109.5
H6B C6 H6C 109.5
C12 C7 C8 122.7(3)
C12 C7 N1 117.5(3)
C8 C7 N1 119.8(3)
C9 C8 C7 117.0(3)
C9 C8 C15 121.1(3)
C7 C8 C15 121.9(3)
C10 C9 C8 122.3(4)
C10 C9 H9A 118.9
C8 C9 H9A 118.9
C11 C10 C9 118.3(3)
C11 C10 C14 121.0(4)
C9 C10 C14 120.7(4)
C10 C11 C12 122.5(4)
C10 C11 H11A 118.8
C12 C11 H11A 118.8
C7 C12 C11 117.3(3)
C7 C12 C13 121.0(3)
C11 C12 C13 121.7(3)
C12 C13 H13A 109.5
C12 C13 H13B 109.5
H13A C13 H13B 109.5
C12 C13 H13C 109.5
H13A C13 H13C 109.5
H13B C13 H13C 109.5
C10 C14 H14A 109.5
C10 C14 H14B 109.5
H14A C14 H14B 109.5
C10 C14 H14C 109.5
H14A C14 H14C 109.5
H14B C14 H14C 109.5
C8 C15 H15A 109.5
C8 C15 H15B 109.5
H15A C15 H15B 109.5
C8 C15 H15C 109.5
H15A C15 H15C 109.5
H15B C15 H15C 109.5
C17 C16 C21 120.6(3)
C17 C16 N2 120.2(3)
C21 C16 N2 118.9(3)
C16 C17 C18 117.8(3)
C16 C17 C24 122.4(3)
C18 C17 C24 119.7(3)
C19 C18 C17 123.3(3)
C19 C18 H18A 118.3
C17 C18 H18A 118.3
C18 C19 C20 116.8(3)
C18 C19 C23 121.5(3)
C20 C19 C23 121.7(3)
C21 C20 C19 122.8(3)
C21 C20 H20A 118.6
C19 C20 H20A 118.6
C20 C21 C16 118.7(3)
C20 C21 C22 120.7(3)
C16 C21 C22 120.7(3)
C21 C22 H22A 109.5
C21 C22 H22B 109.5
H22A C22 H22B 109.5
C21 C22 H22C 109.5
H22A C22 H22C 109.5
H22B C22 H22C 109.5
C19 C23 H23A 109.5
C19 C23 H23B 109.5
H23A C23 H23B 109.5
C19 C23 H23C 109.5
H23A C23 H23C 109.5
H23B C23 H23C 109.5
C17 C24 H24A 109.5
C17 C24 H24B 109.5
H24A C24 H24B 109.5
C17 C24 H24C 109.5
H24A C24 H24C 109.5
H24B C24 H24C 109.5
C30 C25 C26 119.4(3)
C30 C25 S1 120.1(3)
C26 C25 S1 120.1(3)
C27 C26 C25 119.7(4)
C27 C26 H26A 120.2
C25 C26 H26A 120.2
C28 C27 C26 120.9(4)
C28 C27 H27A 119.6
C26 C27 H27A 119.6
C27 C28 C29 119.5(4)
C27 C28 H28A 120.2
C29 C28 H28A 120.2
C30 C29 C28 120.5(4)
C30 C29 H29A 119.7
C28 C29 H29A 119.7
C29 C30 C25 119.9(3)
C29 C30 H30A 120.0
C25 C30 H30A 120.0
C36 C31 C32 119.5(4)
C36 C31 S2 122.0(3)
C32 C31 S2 118.4(3)
C33 C32 C31 119.8(4)
C33 C32 H32A 120.1
C31 C32 H32A 120.1
C32 C33 C34 120.1(4)
C32 C33 H33A 119.9
C34 C33 H33A 119.9
C35 C34 C33 120.1(4)
C35 C34 H34A 120.0
C33 C34 H34A 120.0
C34 C35 C36 120.3(4)
C34 C35 H35A 119.8
C36 C35 H35A 119.8
C35 C36 C31 120.1(4)
C35 C36 H36A 119.9
C31 C36 H36A 119.9
loop_
_geom_bond_atom_site_label_1
_geom_bond_atom_site_label_2
_geom_bond_distance
S1 C25 1.776(3)
S1 C1 1.805(3)
N1 C2 1.420(4)
N1 C1 1.421(4)
N1 C7 1.459(4)
C1 N2 1.257(4)
O1 C2 1.208(4)
S2 C31 1.768(4)
S2 C4 1.787(4)
O2 C4 1.201(4)
N2 C16 1.416(4)
C2 C3 1.533(5)
C3 C5 1.537(5)
C3 C6 1.537(5)
C3 C4 1.544(5)
C5 H5A 0.9600
C5 H5B 0.9600
C5 H5C 0.9600
C6 H6A 0.9600
C6 H6B 0.9600
C6 H6C 0.9600
C7 C12 1.393(5)
C7 C8 1.398(5)
C8 C9 1.394(5)
C8 C15 1.502(5)
C9 C10 1.392(5)
C9 H9A 0.9300
C10 C11 1.376(5)
C10 C14 1.511(5)
C11 C12 1.394(5)
C11 H11A 0.9300
C12 C13 1.507(5)
C13 H13A 0.9600
C13 H13B 0.9600
C13 H13C 0.9600
C14 H14A 0.9600
C14 H14B 0.9600
C14 H14C 0.9600
C15 H15A 0.9600
C15 H15B 0.9600
C15 H15C 0.9600
C16 C17 1.393(5)
C16 C21 1.404(5)
C17 C18 1.394(5)
C17 C24 1.502(5)
C18 C19 1.385(5)
C18 H18A 0.9300
C19 C20 1.387(5)
C19 C23 1.512(5)
C20 C21 1.380(5)
C20 H20A 0.9300
C21 C22 1.502(5)
C22 H22A 0.9600
C22 H22B 0.9600
C22 H22C 0.9600
C23 H23A 0.9600
C23 H23B 0.9600
C23 H23C 0.9600
C24 H24A 0.9600
C24 H24B 0.9600
C24 H24C 0.9600
C25 C30 1.386(5)
C25 C26 1.390(5)
C26 C27 1.375(5)
C26 H26A 0.9300
C27 C28 1.371(6)
C27 H27A 0.9300
C28 C29 1.377(5)
C28 H28A 0.9300
C29 C30 1.376(5)
C29 H29A 0.9300
C30 H30A 0.9300
C31 C36 1.386(5)
C31 C32 1.390(5)
C32 C33 1.378(5)
C32 H32A 0.9300
C33 C34 1.383(6)
C33 H33A 0.9300
C34 C35 1.371(6)
C34 H34A 0.9300
C35 C36 1.374(6)
C35 H35A 0.9300
C36 H36A 0.9300
