#------------------------------------------------------------------------------
#$Date: 2016-02-18 17:37:37 +0200 (Thu, 18 Feb 2016) $
#$Revision: 176729 $
#$URL: svn://www.crystallography.net/cod/cif/1/51/59/1515933.cif $
#------------------------------------------------------------------------------
#
# This file is available in the Crystallography Open Database (COD),
# http://www.crystallography.net/
#
# All data on this site have been placed in the public domain by the
# contributors.
#
data_1515933
loop_
_publ_author_name
'Noponen, Virpi'
Nonappa,
'Lahtinen, Manu'
'Valkonen, Arto'
'Salo, Hannu'
'Kolehmainen, Erkki'
'Siev\"anen, Elina'
_publ_section_title
;
 Bile acid--amino acid ester conjugates: gelation, structural properties,
 and thermoreversible solid to solid phase transition
;
_journal_issue                   16
_journal_name_full               'Soft Matter'
_journal_page_first              3789
_journal_paper_doi               10.1039/b925795k
_journal_volume                  6
_journal_year                    2010
_chemical_absolute_configuration syn
_chemical_formula_moiety         'C30 H51 N O4 S'
_chemical_formula_sum            'C30 H51 N O4 S'
_chemical_formula_weight         521.78
_chemical_name_systematic
;
?
;
_space_group_IT_number           4
_symmetry_cell_setting           monoclinic
_symmetry_space_group_name_Hall  'P 2yb'
_symmetry_space_group_name_H-M   'P 1 21 1'
_atom_sites_solution_hydrogens   geom
_atom_sites_solution_primary     direct
_atom_sites_solution_secondary   difmap
_cell_angle_alpha                90.00
_cell_angle_beta                 104.788(2)
_cell_angle_gamma                90.00
_cell_formula_units_Z            2
_cell_length_a                   9.9056(3)
_cell_length_b                   7.6387(3)
_cell_length_c                   19.5268(6)
_cell_measurement_reflns_used    5821
_cell_measurement_temperature    123(2)
_cell_measurement_theta_max      28.283
_cell_measurement_theta_min      0.407
_cell_volume                     1428.57(8)
_computing_cell_refinement       'DENZO-SMN (Otwinowski & Minor, 1997)'
_computing_data_collection       'Collect (Bruker, 2004)'
_computing_data_reduction        'DENZO-SMN (Otwinowski & Minor, 1997)'
_computing_molecular_graphics    'ORTEP-3 (Farrugia, 1997)'
_computing_publication_material
'SHELXL-97; MERCURY (Macrae, <i>et al.</i>, 2006)'
_computing_structure_refinement  'SHELXL-97 (Sheldrick, 1997)'
_computing_structure_solution    'SIR-2002 (Burla, et al., 2003)'
_diffrn_ambient_temperature      123(2)
_diffrn_detector_area_resol_mean 9
_diffrn_measured_fraction_theta_full 0.999
_diffrn_measured_fraction_theta_max 0.999
_diffrn_measurement_device_type  'Bruker Kappa APEX-II'
_diffrn_measurement_method       '\f and \w scans'
_diffrn_radiation_monochromator  graphite
_diffrn_radiation_source         'fine-focus sealed tube'
_diffrn_radiation_type           MoK\a
_diffrn_radiation_wavelength     0.71073
_diffrn_reflns_av_R_equivalents  0.0532
_diffrn_reflns_av_sigmaI/netI    0.0726
_diffrn_reflns_limit_h_max       12
_diffrn_reflns_limit_h_min       -11
_diffrn_reflns_limit_k_max       9
_diffrn_reflns_limit_k_min       -9
_diffrn_reflns_limit_l_max       22
_diffrn_reflns_limit_l_min       -23
_diffrn_reflns_number            8897
_diffrn_reflns_theta_full        25.50
_diffrn_reflns_theta_max         25.50
_diffrn_reflns_theta_min         2.13
_exptl_absorpt_coefficient_mu    0.148
_exptl_absorpt_correction_type   none
_exptl_crystal_colour            colourless
_exptl_crystal_density_diffrn    1.213
_exptl_crystal_density_method    'not measured'
_exptl_crystal_description       plate
_exptl_crystal_F_000             572
_exptl_crystal_size_max          0.30
_exptl_crystal_size_mid          0.16
_exptl_crystal_size_min          0.05
_refine_diff_density_max         0.258
_refine_diff_density_min         -0.219
_refine_diff_density_rms         0.053
_refine_ls_abs_structure_details 'Flack H D (1983), Acta Cryst. A39, 876-881'
_refine_ls_abs_structure_Flack   -0.03(11)
_refine_ls_extinction_method     none
_refine_ls_goodness_of_fit_ref   1.055
_refine_ls_hydrogen_treatment    mixed
_refine_ls_matrix_type           full
_refine_ls_number_parameters     331
_refine_ls_number_reflns         5294
_refine_ls_number_restraints     3
_refine_ls_restrained_S_all      1.054
_refine_ls_R_factor_all          0.0770
_refine_ls_R_factor_gt           0.0568
_refine_ls_shift/su_max          0.001
_refine_ls_shift/su_mean         0.000
_refine_ls_structure_factor_coef Fsqd
_refine_ls_weighting_details
'calc w=1/[\s^2^(Fo^2^)+(0.0200P)^2^+1.4413P] where P=(Fo^2^+2Fc^2^)/3'
_refine_ls_weighting_scheme      calc
_refine_ls_wR_factor_gt          0.1040
_refine_ls_wR_factor_ref         0.1134
_reflns_number_gt                4374
_reflns_number_total             5294
_reflns_threshold_expression     >2sigma(I)
_cod_data_source_file            b925795k.txt
_cod_data_source_block           (1)
_cod_original_sg_symbol_H-M      P21
_cod_database_code               1515933
loop_
_symmetry_equiv_pos_as_xyz
'x, y, z'
'-x, y+1/2, -z'
loop_
_atom_site_label
_atom_site_type_symbol
_atom_site_fract_x
_atom_site_fract_y
_atom_site_fract_z
_atom_site_U_iso_or_equiv
_atom_site_adp_type
_atom_site_occupancy
_atom_site_symmetry_multiplicity
_atom_site_calc_flag
_atom_site_refinement_flags
S1 S 0.33555(9) 0.49848(14) 0.61000(5) 0.0300(2) Uani 1 1 d .
O3 O 1.1817(3) 0.3582(3) 1.34551(13) 0.0276(6) Uani 1 1 d D
H3O H 1.154(4) 0.450(4) 1.361(2) 0.041 Uiso 1 1 d D
O24 O 0.9042(2) 0.2062(3) 0.62341(12) 0.0233(6) Uani 1 1 d .
O26 O 0.6376(2) 0.4918(4) 0.41330(12) 0.0306(6) Uani 1 1 d .
O27 O 0.8483(2) 0.3785(4) 0.46492(12) 0.0302(6) Uani 1 1 d .
N24 N 0.8003(3) 0.4693(4) 0.59425(13) 0.0190(6) Uani 1 1 d D
H24 H 0.800(4) 0.586(3) 0.6035(18) 0.023 Uiso 1 1 d D
C1 C 1.4121(4) 0.5729(5) 1.24199(18) 0.0213(8) Uani 1 1 d .
H1A H 1.4966 0.5864 1.2816 0.026 Uiso 1 1 calc R
H1B H 1.4011 0.6814 1.2134 0.026 Uiso 1 1 calc R
C2 C 1.2859(4) 0.5529(5) 1.27239(18) 0.0213(8) Uani 1 1 d .
H2A H 1.2793 0.6554 1.3024 0.026 Uiso 1 1 calc R
H2B H 1.1997 0.5482 1.2333 0.026 Uiso 1 1 calc R
C3 C 1.2986(3) 0.3878(5) 1.31594(16) 0.0210(7) Uani 1 1 d .
H3 H 1.3855 0.3951 1.3555 0.025 Uiso 1 1 calc R
C4 C 1.3105(3) 0.2325(5) 1.26991(17) 0.0208(7) Uani 1 1 d .
H4A H 1.2243 0.2236 1.2310 0.025 Uiso 1 1 calc R
H4B H 1.3187 0.1242 1.2985 0.025 Uiso 1 1 calc R
C5 C 1.4372(3) 0.2468(5) 1.23825(17) 0.0208(7) Uani 1 1 d .
H5 H 1.5222 0.2519 1.2789 0.025 Uiso 1 1 calc R
C6 C 1.4512(4) 0.0840(5) 1.19555(18) 0.0244(9) Uani 1 1 d .
H6A H 1.4445 -0.0215 1.2239 0.029 Uiso 1 1 calc R
H6B H 1.5443 0.0837 1.1856 0.029 Uiso 1 1 calc R
C7 C 1.3371(4) 0.0758(5) 1.12478(17) 0.0223(8) Uani 1 1 d .
H7A H 1.3543 -0.0265 1.0970 0.027 Uiso 1 1 calc R
H7B H 1.2446 0.0605 1.1346 0.027 Uiso 1 1 calc R
C8 C 1.3363(3) 0.2432(5) 1.08126(16) 0.0170(7) Uani 1 1 d .
H8 H 1.4285 0.2525 1.0694 0.020 Uiso 1 1 calc R
C9 C 1.3179(3) 0.4065(5) 1.12433(15) 0.0164(7) Uani 1 1 d .
H9 H 1.2280 0.3901 1.1379 0.020 Uiso 1 1 calc R
C10 C 1.4348(3) 0.4179(5) 1.19523(16) 0.0194(7) Uani 1 1 d .
C11 C 1.3019(4) 0.5754(5) 1.08072(18) 0.0225(8) Uani 1 1 d .
H11A H 1.3939 0.6073 1.0732 0.027 Uiso 1 1 calc R
H11B H 1.2730 0.6708 1.1082 0.027 Uiso 1 1 calc R
C12 C 1.1950(4) 0.5619(5) 1.00808(17) 0.0202(8) Uani 1 1 d .
H12A H 1.0999 0.5505 1.0152 0.024 Uiso 1 1 calc R
H12B H 1.1979 0.6705 0.9808 0.024 Uiso 1 1 calc R
C13 C 1.2250(3) 0.4045(5) 0.96565(16) 0.0177(7) Uani 1 1 d .
C14 C 1.2215(3) 0.2405(5) 1.01181(16) 0.0161(7) Uani 1 1 d .
H14 H 1.1303 0.2430 1.0249 0.019 Uiso 1 1 calc R
C15 C 1.2152(4) 0.0871(5) 0.96119(18) 0.0228(8) Uani 1 1 d .
H15A H 1.1705 -0.0159 0.9770 0.027 Uiso 1 1 calc R
H15B H 1.3100 0.0539 0.9579 0.027 Uiso 1 1 calc R
C16 C 1.1267(4) 0.1552(5) 0.88945(18) 0.0222(8) Uani 1 1 d .
H16A H 1.0344 0.0967 0.8770 0.027 Uiso 1 1 calc R
H16B H 1.1743 0.1308 0.8516 0.027 Uiso 1 1 calc R
C17 C 1.1086(3) 0.3560(4) 0.89718(17) 0.0171(7) Uani 1 1 d .
H17 H 1.0161 0.3755 0.9077 0.021 Uiso 1 1 calc R
C18 C 1.3661(3) 0.4251(5) 0.94722(17) 0.0241(8) Uani 1 1 d .
H18A H 1.3641 0.5301 0.9182 0.036 Uiso 1 1 calc R
H18B H 1.3835 0.3220 0.9208 0.036 Uiso 1 1 calc R
H18C H 1.4407 0.4361 0.9909 0.036 Uiso 1 1 calc R
C19 C 1.5798(3) 0.4472(5) 1.18143(17) 0.0274(9) Uani 1 1 d .
H19A H 1.5999 0.3521 1.1518 0.041 Uiso 1 1 calc R
H19B H 1.6511 0.4490 1.2266 0.041 Uiso 1 1 calc R
H19C H 1.5804 0.5592 1.1570 0.041 Uiso 1 1 calc R
C20 C 1.1080(3) 0.4577(4) 0.82873(15) 0.0185(8) Uani 1 1 d .
H20 H 1.2003 0.4380 0.8180 0.022 Uiso 1 1 calc R
C21 C 1.0902(4) 0.6557(5) 0.83660(18) 0.0249(8) Uani 1 1 d .
H21A H 1.1636 0.6992 0.8767 0.037 Uiso 1 1 calc R
H21B H 0.9986 0.6794 0.8450 0.037 Uiso 1 1 calc R
H21C H 1.0972 0.7150 0.7931 0.037 Uiso 1 1 calc R
C22 C 0.9940(3) 0.3847(5) 0.76610(16) 0.0211(7) Uani 1 1 d .
H22A H 1.0012 0.2554 0.7660 0.025 Uiso 1 1 calc R
H22B H 0.9013 0.4152 0.7730 0.025 Uiso 1 1 calc R
C23 C 1.0044(3) 0.4550(5) 0.69384(16) 0.0225(8) Uani 1 1 d .
H23A H 0.9865 0.5826 0.6915 0.027 Uiso 1 1 calc R
H23B H 1.0999 0.4352 0.6885 0.027 Uiso 1 1 calc R
C24 C 0.8996(3) 0.3647(5) 0.63385(16) 0.0192(8) Uani 1 1 d .
C25 C 0.6885(3) 0.4017(5) 0.53633(16) 0.0211(7) Uani 1 1 d .
H25 H 0.6836 0.2723 0.5433 0.025 Uiso 1 1 calc R
C26 C 0.7190(3) 0.4312(5) 0.46399(17) 0.0212(8) Uani 1 1 d .
C27 C 0.8828(4) 0.3882(6) 0.39728(17) 0.0330(9) Uani 1 1 d .
H27A H 0.9786 0.3469 0.4027 0.049 Uiso 1 1 calc R
H27B H 0.8750 0.5097 0.3807 0.049 Uiso 1 1 calc R
H27C H 0.8182 0.3146 0.3628 0.049 Uiso 1 1 calc R
C28 C 0.5468(3) 0.4780(5) 0.53836(17) 0.0223(7) Uani 1 1 d .
H28A H 0.4789 0.4571 0.4922 0.027 Uiso 1 1 calc R
H28B H 0.5560 0.6061 0.5458 0.027 Uiso 1 1 calc R
C29 C 0.4919(3) 0.3961(5) 0.59757(17) 0.0224(7) Uani 1 1 d .
H29A H 0.5658 0.4034 0.6425 0.027 Uiso 1 1 calc R
H29B H 0.4725 0.2706 0.5867 0.027 Uiso 1 1 calc R
C30 C 0.2038(4) 0.4177(6) 0.53476(19) 0.0320(9) Uani 1 1 d .
H30A H 0.1126 0.4658 0.5358 0.048 Uiso 1 1 calc R
H30B H 0.2004 0.2896 0.5367 0.048 Uiso 1 1 calc R
H30C H 0.2267 0.4538 0.4909 0.048 Uiso 1 1 calc R
loop_
_atom_site_aniso_label
_atom_site_aniso_U_11
_atom_site_aniso_U_22
_atom_site_aniso_U_33
_atom_site_aniso_U_23
_atom_site_aniso_U_13
_atom_site_aniso_U_12
S1 0.0206(4) 0.0406(6) 0.0285(5) -0.0113(5) 0.0057(4) -0.0010(5)
O3 0.0304(14) 0.0293(17) 0.0294(14) -0.0033(12) 0.0188(11) -0.0012(12)
O24 0.0249(13) 0.0188(15) 0.0249(13) 0.0009(11) 0.0041(10) 0.0030(10)
O26 0.0344(14) 0.0366(15) 0.0185(12) 0.0007(13) 0.0028(10) 0.0076(14)
O27 0.0223(13) 0.0491(17) 0.0186(12) -0.0001(13) 0.0044(10) -0.0020(13)
N24 0.0161(13) 0.0208(17) 0.0186(14) -0.0027(13) 0.0016(11) -0.0007(13)
C1 0.0218(18) 0.0237(19) 0.0170(18) -0.0004(15) 0.0027(15) -0.0046(15)
C2 0.0251(18) 0.0187(19) 0.0205(18) -0.0047(14) 0.0065(15) -0.0011(15)
C3 0.0237(18) 0.0224(18) 0.0171(16) 0.0025(16) 0.0059(14) -0.0024(16)
C4 0.0262(18) 0.0208(19) 0.0161(16) 0.0034(15) 0.0068(14) 0.0004(16)
C5 0.0194(17) 0.025(2) 0.0168(17) 0.0025(16) 0.0019(13) 0.0062(16)
C6 0.027(2) 0.027(2) 0.0180(18) 0.0048(16) 0.0044(16) 0.0083(17)
C7 0.033(2) 0.0162(18) 0.0168(18) -0.0001(14) 0.0054(16) 0.0048(16)
C8 0.0200(16) 0.0150(18) 0.0147(16) 0.0024(15) 0.0023(13) 0.0028(15)
C9 0.0167(16) 0.0172(17) 0.0151(15) 0.0025(14) 0.0038(13) -0.0020(14)
C10 0.0166(17) 0.0220(19) 0.0180(16) -0.0005(15) 0.0016(13) -0.0002(15)
C11 0.030(2) 0.0183(19) 0.0172(18) -0.0018(15) 0.0027(15) -0.0010(16)
C12 0.0252(18) 0.0150(18) 0.0189(18) -0.0006(14) 0.0028(14) 0.0018(15)
C13 0.0169(16) 0.0193(18) 0.0150(16) -0.0003(15) 0.0008(13) -0.0007(15)
C14 0.0178(16) 0.0135(18) 0.0174(16) 0.0007(15) 0.0053(13) -0.0003(15)
C15 0.030(2) 0.016(2) 0.0214(18) -0.0006(15) 0.0061(16) 0.0036(16)
C16 0.026(2) 0.020(2) 0.0208(18) -0.0017(16) 0.0060(16) 0.0004(16)
C17 0.0139(16) 0.0191(19) 0.0193(17) 0.0012(14) 0.0059(13) 0.0001(14)
C18 0.0234(18) 0.030(2) 0.0175(17) 0.0040(15) 0.0027(13) -0.0051(16)
C19 0.0206(18) 0.041(3) 0.0184(17) -0.0003(16) 0.0007(14) -0.0054(16)
C20 0.0158(16) 0.023(2) 0.0138(15) -0.0006(14) -0.0018(12) -0.0045(14)
C21 0.031(2) 0.022(2) 0.0170(18) 0.0033(15) -0.0020(15) -0.0085(16)
C22 0.0185(17) 0.0207(19) 0.0225(17) 0.0003(16) 0.0025(14) -0.0019(15)
C23 0.0194(17) 0.029(2) 0.0170(16) -0.0009(15) 0.0001(13) -0.0036(15)
C24 0.0196(18) 0.023(2) 0.0168(16) 0.0056(15) 0.0083(14) 0.0010(15)
C25 0.0199(17) 0.0208(19) 0.0204(16) 0.0010(16) 0.0012(13) -0.0008(16)
C26 0.0209(18) 0.021(2) 0.0197(17) -0.0013(15) 0.0015(14) -0.0030(15)
C27 0.033(2) 0.043(2) 0.0261(19) -0.005(2) 0.0138(16) -0.006(2)
C28 0.0187(16) 0.0237(19) 0.0227(17) 0.0021(16) 0.0021(13) -0.0002(16)
C29 0.0162(17) 0.026(2) 0.0236(17) -0.0014(17) 0.0030(13) -0.0029(16)
C30 0.0251(19) 0.036(2) 0.032(2) -0.0023(18) 0.0023(16) -0.0019(18)
loop_
_atom_type_symbol
_atom_type_description
_atom_type_scat_dispersion_real
_atom_type_scat_dispersion_imag
_atom_type_scat_source
C C 0.0033 0.0016 'International Tables Vol C Tables 4.2.6.8 and 6.1.1.4'
H H 0.0000 0.0000 'International Tables Vol C Tables 4.2.6.8 and 6.1.1.4'
N N 0.0061 0.0033 'International Tables Vol C Tables 4.2.6.8 and 6.1.1.4'
O O 0.0106 0.0060 'International Tables Vol C Tables 4.2.6.8 and 6.1.1.4'
S S 0.1246 0.1234 'International Tables Vol C Tables 4.2.6.8 and 6.1.1.4'
loop_
_geom_angle_atom_site_label_1
_geom_angle_atom_site_label_2
_geom_angle_atom_site_label_3
_geom_angle
C29 S1 C30 102.08(17)
C3 O3 H3O 113(3)
C26 O27 C27 114.8(3)
C24 N24 C25 122.2(3)
C24 N24 H24 120(2)
C25 N24 H24 118(2)
C2 C1 C10 114.3(3)
C2 C1 H1A 108.7
C10 C1 H1A 108.7
C2 C1 H1B 108.7
C10 C1 H1B 108.7
H1A C1 H1B 107.6
C3 C2 C1 110.2(3)
C3 C2 H2A 109.6
C1 C2 H2A 109.6
C3 C2 H2B 109.6
C1 C2 H2B 109.6
H2A C2 H2B 108.1
O3 C3 C2 113.5(3)
O3 C3 C4 107.9(3)
C2 C3 C4 109.2(3)
O3 C3 H3 108.7
C2 C3 H3 108.7
C4 C3 H3 108.7
C3 C4 C5 112.3(3)
C3 C4 H4A 109.2
C5 C4 H4A 109.2
C3 C4 H4B 109.2
C5 C4 H4B 109.2
H4A C4 H4B 107.9
C6 C5 C4 111.1(3)
C6 C5 C10 112.5(3)
C4 C5 C10 112.1(3)
C6 C5 H5 106.9
C4 C5 H5 106.9
C10 C5 H5 106.9
C5 C6 C7 112.0(3)
C5 C6 H6A 109.2
C7 C6 H6A 109.2
C5 C6 H6B 109.2
C7 C6 H6B 109.2
H6A C6 H6B 107.9
C8 C7 C6 111.1(3)
C8 C7 H7A 109.4
C6 C7 H7A 109.4
C8 C7 H7B 109.4
C6 C7 H7B 109.4
H7A C7 H7B 108.0
C14 C8 C7 112.2(3)
C14 C8 C9 109.2(3)
C7 C8 C9 110.9(2)
C14 C8 H8 108.1
C7 C8 H8 108.1
C9 C8 H8 108.1
C11 C9 C8 112.8(2)
C11 C9 C10 113.2(3)
C8 C9 C10 111.3(3)
C11 C9 H9 106.3
C8 C9 H9 106.3
C10 C9 H9 106.3
C19 C10 C1 105.9(3)
C19 C10 C5 109.3(3)
C1 C10 C5 108.1(3)
C19 C10 C9 111.4(2)
C1 C10 C9 112.2(3)
C5 C10 C9 109.8(3)
C9 C11 C12 113.9(3)
C9 C11 H11A 108.8
C12 C11 H11A 108.8
C9 C11 H11B 108.8
C12 C11 H11B 108.8
H11A C11 H11B 107.7
C13 C12 C11 111.6(3)
C13 C12 H12A 109.3
C11 C12 H12A 109.3
C13 C12 H12B 109.3
C11 C12 H12B 109.3
H12A C12 H12B 108.0
C12 C13 C18 111.1(3)
C12 C13 C14 106.5(2)
C18 C13 C14 112.1(3)
C12 C13 C17 116.4(3)
C18 C13 C17 109.8(2)
C14 C13 C17 100.6(3)
C15 C14 C8 118.9(3)
C15 C14 C13 104.4(2)
C8 C14 C13 112.5(3)
C15 C14 H14 106.8
C8 C14 H14 106.8
C13 C14 H14 106.8
C14 C15 C16 104.4(3)
C14 C15 H15A 110.9
C16 C15 H15A 110.9
C14 C15 H15B 110.9
C16 C15 H15B 110.9
H15A C15 H15B 108.9
C15 C16 C17 107.3(3)
C15 C16 H16A 110.3
C17 C16 H16A 110.3
C15 C16 H16B 110.3
C17 C16 H16B 110.3
H16A C16 H16B 108.5
C20 C17 C16 112.8(3)
C20 C17 C13 117.2(3)
C16 C17 C13 103.7(3)
C20 C17 H17 107.5
C16 C17 H17 107.5
C13 C17 H17 107.5
C13 C18 H18A 109.5
C13 C18 H18B 109.5
H18A C18 H18B 109.5
C13 C18 H18C 109.5
H18A C18 H18C 109.5
H18B C18 H18C 109.5
C10 C19 H19A 109.5
C10 C19 H19B 109.5
H19A C19 H19B 109.5
C10 C19 H19C 109.5
H19A C19 H19C 109.5
H19B C19 H19C 109.5
C21 C20 C22 110.9(3)
C21 C20 C17 112.6(3)
C22 C20 C17 110.2(3)
C21 C20 H20 107.7
C22 C20 H20 107.7
C17 C20 H20 107.7
C20 C21 H21A 109.5
C20 C21 H21B 109.5
H21A C21 H21B 109.5
C20 C21 H21C 109.5
H21A C21 H21C 109.5
H21B C21 H21C 109.5
C23 C22 C20 113.3(3)
C23 C22 H22A 108.9
C20 C22 H22A 108.9
C23 C22 H22B 108.9
C20 C22 H22B 108.9
H22A C22 H22B 107.7
C24 C23 C22 110.9(3)
C24 C23 H23A 109.5
C22 C23 H23A 109.5
C24 C23 H23B 109.5
C22 C23 H23B 109.5
H23A C23 H23B 108.0
O24 C24 N24 122.7(3)
O24 C24 C23 121.9(3)
N24 C24 C23 115.4(3)
N24 C25 C28 111.4(3)
N24 C25 C26 111.9(3)
C28 C25 C26 111.4(3)
N24 C25 H25 107.3
C28 C25 H25 107.3
C26 C25 H25 107.3
O26 C26 O27 124.6(3)
O26 C26 C25 124.6(3)
O27 C26 C25 110.9(3)
O27 C27 H27A 109.5
O27 C27 H27B 109.5
H27A C27 H27B 109.5
O27 C27 H27C 109.5
H27A C27 H27C 109.5
H27B C27 H27C 109.5
C25 C28 C29 111.6(3)
C25 C28 H28A 109.3
C29 C28 H28A 109.3
C25 C28 H28B 109.3
C29 C28 H28B 109.3
H28A C28 H28B 108.0
C28 C29 S1 114.0(2)
C28 C29 H29A 108.8
S1 C29 H29A 108.8
C28 C29 H29B 108.8
S1 C29 H29B 108.8
H29A C29 H29B 107.7
S1 C30 H30A 109.5
S1 C30 H30B 109.5
H30A C30 H30B 109.5
S1 C30 H30C 109.5
H30A C30 H30C 109.5
H30B C30 H30C 109.5
loop_
_geom_bond_atom_site_label_1
_geom_bond_atom_site_label_2
_geom_bond_distance
S1 C29 1.806(3)
S1 C30 1.807(4)
O3 C3 1.438(4)
O3 H3O 0.835(19)
O24 C24 1.231(4)
O26 C26 1.199(4)
O27 C26 1.338(4)
O27 C27 1.448(4)
N24 C24 1.347(4)
N24 C25 1.460(4)
N24 H24 0.910(18)
C1 C2 1.522(5)
C1 C10 1.546(5)
C1 H1A 0.9900
C1 H1B 0.9900
C2 C3 1.508(5)
C2 H2A 0.9900
C2 H2B 0.9900
C3 C4 1.511(5)
C3 H3 1.0000
C4 C5 1.538(4)
C4 H4A 0.9900
C4 H4B 0.9900
C5 C6 1.523(5)
C5 C10 1.551(5)
C5 H5 1.0000
C6 C7 1.547(5)
C6 H6A 0.9900
C6 H6B 0.9900
C7 C8 1.534(5)
C7 H7A 0.9900
C7 H7B 0.9900
C8 C14 1.531(4)
C8 C9 1.542(5)
C8 H8 1.0000
C9 C11 1.531(5)
C9 C10 1.564(4)
C9 H9 1.0000
C10 C19 1.544(4)
C11 C12 1.542(5)
C11 H11A 0.9900
C11 H11B 0.9900
C12 C13 1.532(5)
C12 H12A 0.9900
C12 H12B 0.9900
C13 C18 1.537(4)
C13 C14 1.549(5)
C13 C17 1.571(4)
C14 C15 1.524(5)
C14 H14 1.0000
C15 C16 1.541(5)
C15 H15A 0.9900
C15 H15B 0.9900
C16 C17 1.556(4)
C16 H16A 0.9900
C16 H16B 0.9900
C17 C20 1.545(4)
C17 H17 1.0000
C18 H18A 0.9800
C18 H18B 0.9800
C18 H18C 0.9800
C19 H19A 0.9800
C19 H19B 0.9800
C19 H19C 0.9800
C20 C21 1.535(5)
C20 C22 1.542(4)
C20 H20 1.0000
C21 H21A 0.9800
C21 H21B 0.9800
C21 H21C 0.9800
C22 C23 1.537(4)
C22 H22A 0.9900
C22 H22B 0.9900
C23 C24 1.518(5)
C23 H23A 0.9900
C23 H23B 0.9900
C25 C28 1.529(4)
C25 C26 1.535(4)
C25 H25 1.0000
C27 H27A 0.9800
C27 H27B 0.9800
C27 H27C 0.9800
C28 C29 1.532(4)
C28 H28A 0.9900
C28 H28B 0.9900
C29 H29A 0.9900
C29 H29B 0.9900
C30 H30A 0.9800
C30 H30B 0.9800
C30 H30C 0.9800
loop_
_geom_hbond_atom_site_label_D
_geom_hbond_atom_site_label_H
_geom_hbond_atom_site_label_A
_geom_hbond_distance_DH
_geom_hbond_distance_HA
_geom_hbond_distance_DA
_geom_hbond_angle_DHA
_geom_hbond_site_symmetry_A
O3 H3O O24 0.835(19) 2.09(2) 2.902(4) 165(4) 2_757
N24 H24 O3 0.910(18) 2.29(2) 3.184(4) 166(3) 2_757
loop_
_geom_torsion_atom_site_label_1
_geom_torsion_atom_site_label_2
_geom_torsion_atom_site_label_3
_geom_torsion_atom_site_label_4
_geom_torsion
C10 C1 C2 C3 58.1(4)
C1 C2 C3 O3 -179.0(3)
C1 C2 C3 C4 -58.5(4)
O3 C3 C4 C5 -177.3(3)
C2 C3 C4 C5 58.9(4)
C3 C4 C5 C6 176.8(3)
C3 C4 C5 C10 -56.4(4)
C4 C5 C6 C7 72.3(4)
C10 C5 C6 C7 -54.3(4)
C5 C6 C7 C8 54.7(4)
C6 C7 C8 C14 -178.4(3)
C6 C7 C8 C9 -56.0(3)
C14 C8 C9 C11 -50.2(4)
C7 C8 C9 C11 -174.3(3)
C14 C8 C9 C10 -178.7(3)
C7 C8 C9 C10 57.1(3)
C2 C1 C10 C19 -170.0(3)
C2 C1 C10 C5 -52.9(4)
C2 C1 C10 C9 68.3(4)
C6 C5 C10 C19 -68.3(3)
C4 C5 C10 C19 165.6(3)
C6 C5 C10 C1 176.9(3)
C4 C5 C10 C1 50.8(3)
C6 C5 C10 C9 54.2(3)
C4 C5 C10 C9 -71.9(3)
C11 C9 C10 C19 -62.5(4)
C8 C9 C10 C19 65.8(4)
C11 C9 C10 C1 56.0(4)
C8 C9 C10 C1 -175.6(3)
C11 C9 C10 C5 176.2(3)
C8 C9 C10 C5 -55.4(3)
C8 C9 C11 C12 48.0(4)
C10 C9 C11 C12 175.6(3)
C9 C11 C12 C13 -52.7(4)
C11 C12 C13 C18 -64.3(4)
C11 C12 C13 C14 57.9(3)
C11 C12 C13 C17 169.1(3)
C7 C8 C14 C15 -54.6(4)
C9 C8 C14 C15 -177.9(3)
C7 C8 C14 C13 -176.9(3)
C9 C8 C14 C13 59.7(3)
C12 C13 C14 C15 166.3(3)
C18 C13 C14 C15 -72.0(3)
C17 C13 C14 C15 44.5(3)
C12 C13 C14 C8 -63.5(3)
C18 C13 C14 C8 58.2(4)
C17 C13 C14 C8 174.7(3)
C8 C14 C15 C16 -161.0(3)
C13 C14 C15 C16 -34.6(3)
C14 C15 C16 C17 10.7(4)
C15 C16 C17 C20 144.5(3)
C15 C16 C17 C13 16.7(3)
C12 C13 C17 C20 83.6(3)
C18 C13 C17 C20 -43.6(4)
C14 C13 C17 C20 -161.9(3)
C12 C13 C17 C16 -151.3(3)
C18 C13 C17 C16 81.4(3)
C14 C13 C17 C16 -36.8(3)
C16 C17 C20 C21 -180.0(3)
C13 C17 C20 C21 -59.6(4)
C16 C17 C20 C22 55.7(4)
C13 C17 C20 C22 176.1(3)
C21 C20 C22 C23 65.4(4)
C17 C20 C22 C23 -169.2(3)
C20 C22 C23 C24 174.1(3)
C25 N24 C24 O24 1.1(5)
C25 N24 C24 C23 -177.5(3)
C22 C23 C24 O24 -62.5(4)
C22 C23 C24 N24 116.1(3)
C24 N24 C25 C28 135.0(3)
C24 N24 C25 C26 -99.5(4)
C27 O27 C26 O26 -4.1(5)
C27 O27 C26 C25 175.3(3)
N24 C25 C26 O26 -131.8(4)
C28 C25 C26 O26 -6.4(5)
N24 C25 C26 O27 48.8(4)
C28 C25 C26 O27 174.2(3)
N24 C25 C28 C29 -74.6(4)
C26 C25 C28 C29 159.7(3)
C25 C28 C29 S1 172.9(2)
C30 S1 C29 C28 74.6(3)
