#------------------------------------------------------------------------------
#$Date: 2016-02-14 16:26:36 +0200 (Sun, 14 Feb 2016) $
#$Revision: 176435 $
#$URL: svn://www.crystallography.net/cod/cif/1/51/67/1516701.cif $
#------------------------------------------------------------------------------
#
# This file is available in the Crystallography Open Database (COD),
# http://www.crystallography.net/
#
# All data on this site have been placed in the public domain by the
# contributors.
#
data_1516701
loop_
_publ_author_name
'Bayliss, Sam L.'
'Cole, Jacqueline M.'
'Waddell, Paul G.'
'McKechnie, Scott'
'Liu, Xiaogang'
_publ_section_title
;
 Predicting Solar-Cell Dyes for Cosensitization
;
_journal_issue                   26
_journal_name_full               'The Journal of Physical Chemistry C'
_journal_page_first              14082
_journal_paper_doi               10.1021/jp501159g
_journal_volume                  118
_journal_year                    2014
_chemical_formula_moiety         'C31 H29 N2 O1 S1, Cl1 O4, 0.25(C2 O0.5)'
_chemical_formula_sum            'C31.5 H29 Cl N2 O5.125 S'
_chemical_formula_weight         583.08
_chemical_name_systematic
;
 ?
;
_space_group_IT_number           2
_symmetry_cell_setting           triclinic
_symmetry_space_group_name_Hall  '-P 1'
_symmetry_space_group_name_H-M   'P -1'
_atom_sites_solution_hydrogens   geom
_atom_sites_solution_primary     direct
_atom_sites_solution_secondary   difmap
_audit_creation_date             2013-04-15T10:11:23-00:00
_audit_creation_method           'WinGX routine CIF_UPDATE'
_cell_angle_alpha                92.665(19)
_cell_angle_beta                 102.552(17)
_cell_angle_gamma                99.03(2)
_cell_formula_units_Z            2
_cell_length_a                   8.027(10)
_cell_length_b                   11.283(13)
_cell_length_c                   17.69(2)
_cell_measurement_reflns_used    4264
_cell_measurement_temperature    120(2)
_cell_measurement_theta_max      32.8
_cell_measurement_theta_min      1.8
_cell_volume                     1539(3)
_computing_cell_refinement
;
        CrystalClear-SM Expert 2.0 r4 (Rigaku, 2009)
;
_computing_data_collection
;
        CrystalClear-SM Expert 2.0 r4 (Rigaku, 2009)
;
_computing_data_reduction
;
        CrystalClear-SM Expert 2.0 r4 (Rigaku, 2009)
;
_computing_molecular_graphics    'Ortep-3 for Windows (Farrugia, 1997)'
_computing_publication_material  'WinGX publication routines (Farrugia, 1999)'
_computing_structure_refinement  'SHELXL-97 (Sheldrick, 2008)'
_diffrn_ambient_temperature      120(2)
_diffrn_detector_area_resol_mean 28.5714
_diffrn_measured_fraction_theta_full 0.984
_diffrn_measured_fraction_theta_max 0.984
_diffrn_measurement_device_type
;
        Rigaku Saturn724+ (2x2 bin mode)
;
_diffrn_measurement_method       'profile data from \w-scans'
_diffrn_radiation_monochromator  graphite
_diffrn_radiation_type           MoK\a
_diffrn_radiation_wavelength     0.71073
_diffrn_reflns_av_R_equivalents  0.0468
_diffrn_reflns_av_unetI/netI     0.0652
_diffrn_reflns_limit_h_max       7
_diffrn_reflns_limit_h_min       -9
_diffrn_reflns_limit_k_max       13
_diffrn_reflns_limit_k_min       -13
_diffrn_reflns_limit_l_max       21
_diffrn_reflns_limit_l_min       -20
_diffrn_reflns_number            10289
_diffrn_reflns_theta_full        25
_diffrn_reflns_theta_max         25.03
_diffrn_reflns_theta_min         3.41
_diffrn_source                   'Sealed Tube'
_exptl_absorpt_coefficient_mu    0.233
_exptl_absorpt_correction_T_max  0.957
_exptl_absorpt_correction_T_min  0.940
_exptl_absorpt_correction_type   multi-scan
_exptl_absorpt_process_details   'Higashi, 1995'
_exptl_crystal_colour            Red
_exptl_crystal_density_diffrn    1.258
_exptl_crystal_density_method    'not measured'
_exptl_crystal_description       Prism
_exptl_crystal_F_000             610
_exptl_crystal_size_max          0.31
_exptl_crystal_size_mid          0.22
_exptl_crystal_size_min          0.19
_refine_diff_density_max         0.657
_refine_diff_density_min         -0.361
_refine_diff_density_rms         0.069
_refine_ls_extinction_method     none
_refine_ls_goodness_of_fit_ref   1.061
_refine_ls_hydrogen_treatment    constr
_refine_ls_matrix_type           full
_refine_ls_number_parameters     391
_refine_ls_number_reflns         5359
_refine_ls_number_restraints     2
_refine_ls_restrained_S_all      1.06
_refine_ls_R_factor_all          0.0824
_refine_ls_R_factor_gt           0.0715
_refine_ls_shift/su_max          0.001
_refine_ls_shift/su_mean         0
_refine_ls_structure_factor_coef Fsqd
_refine_ls_weighting_details
'calc w=1/[\s^2^(Fo^2^)+(0.1033P)^2^+1.0544P] where P=(Fo^2^+2Fc^2^)/3'
_refine_ls_weighting_scheme      calc
_refine_ls_wR_factor_ref         0.1979
_reflns_number_gt                4498
_reflns_number_total             5359
_reflns_threshold_expression     >2\s(I)
_iucr_refine_instructions_details
;
TITL LDS867 in P -1
CELL  0.71073   8.0270  11.2830  17.6900   92.665  102.552   99.030
ZERR     2.00   0.0100   0.0130   0.0200    0.019    0.017    0.020
LATT   1
SFAC  C    H    N    O    CL   S
UNIT  63   58   4    10   2    2
MERG   2
OMIT     0  -2   3
OMIT     0   1   2
OMIT     0   0   1
OMIT     0  -1   1
OMIT     0   1   1
OMIT    -1   1   0
OMIT     0  -1   2
OMIT     1   0   0
OMIT     0   0   2
OMIT    -1   1   4
OMIT     1  -3   1
OMIT    -1   2   0
OMIT    -1   2   2
OMIT     0   1   0
OMIT     1  -1   1
OMIT     1  -2   5
OMIT     0  -2   4
OMIT     1  -2   2
OMIT     0  -2   5
OMIT     0  -1   3
OMIT     0   2   3
OMIT     0  -3   3
OMIT     0  -2   1
OMIT     0   5   1
OMIT     2   1   6
OMIT     2  -3   4
OMIT     2   0   4
OMIT    -2  -5   1
OMIT     3   2   3
OMIT     0   6   4
OMIT    -1   0   3
DFIX 1.25 0.02 O1s C1s
DFIX 1.55 0.02 C1s C2s
SHEL 999 0.84
FMAP   2
PLAN   25
ACTA    50.00
BOND   $H
CONF
L.S.  10
WGHT    0.103300    1.054400
FVAR       4.44193
MOLE    1
C1    1   -0.479339    0.028433   -0.112080    11.00000    0.04934    0.10121 =
         0.04583   -0.00704   -0.00028   -0.00786
C2    1   -0.444629    0.151786   -0.087491    11.00000    0.05778    0.08528 =
         0.05304    0.00187   -0.00754   -0.00718
AFIX  43
H2    2   -0.517686    0.201616   -0.112107    11.00000   -1.20000
AFIX   0
C3    1   -0.305538    0.201490   -0.027946    11.00000    0.04997    0.07164 =
         0.05715    0.00012   -0.00554   -0.00508
AFIX  43
H3    2   -0.285394    0.283969   -0.014379    11.00000   -1.20000
AFIX   0
C4    1   -0.193658    0.129481    0.012595    11.00000    0.04772    0.06220 =
         0.04359   -0.00972    0.00221   -0.00440
C5    1   -0.230804    0.006418   -0.010637    11.00000    0.05169    0.06611 =
         0.06081   -0.01593    0.00527    0.00070
AFIX  43
H5    2   -0.161675   -0.044022    0.016049    11.00000   -1.20000
AFIX   0
C6    1   -0.367266   -0.043561   -0.072170    11.00000    0.05588    0.07292 =
         0.06586   -0.02652    0.01726   -0.01705
AFIX  43
H6    2   -0.384539   -0.125513   -0.087068    11.00000   -1.20000
AFIX   0
C7    1   -0.748131    0.050511   -0.201167    11.00000    0.05134    0.18294 =
         0.07440    0.00698   -0.02709   -0.01723
AFIX 137
H7A   2   -0.784697    0.087502   -0.158994    11.00000   -1.50000
H7B   2   -0.845818   -0.000285   -0.234789    11.00000   -1.50000
H7C   2   -0.700116    0.111827   -0.229986    11.00000   -1.50000
AFIX   0
C8    1   -0.646448   -0.144627   -0.197501    11.00000    0.06864    0.14796 =
         0.07684   -0.05450    0.00755   -0.03554
AFIX 137
H8A   2   -0.542898   -0.163686   -0.210287    11.00000   -1.50000
H8B   2   -0.740005   -0.160810   -0.242816    11.00000   -1.50000
H8C   2   -0.674858   -0.193033   -0.157371    11.00000   -1.50000
AFIX   0
C9    1   -0.048333    0.176998    0.076765    11.00000    0.04545    0.05945 =
         0.04720   -0.00863    0.00354    0.00427
AFIX  43
H9    2    0.005036    0.120458    0.105163    11.00000   -1.20000
AFIX   0
C10   1    0.018404    0.293902    0.100024    11.00000    0.04800    0.05262 =
         0.04598   -0.00368   -0.00313    0.00799
AFIX  43
H10   2   -0.028038    0.352703    0.071243    11.00000   -1.20000
AFIX   0
C11   1    0.157236    0.331557    0.166881    11.00000    0.04055    0.04704 =
         0.04713   -0.00346    0.00029    0.00581
AFIX  43
H11   2    0.204549    0.271994    0.194520    11.00000   -1.20000
AFIX   0
C12   1    0.224203    0.447453    0.192578    11.00000    0.03928    0.04448 =
         0.04959   -0.00073   -0.00322    0.00838
AFIX  43
H12   2    0.183304    0.506635    0.162373    11.00000   -1.20000
AFIX   0
C13   1    0.354939    0.486988    0.263591    11.00000    0.03252    0.04189 =
         0.04369   -0.00064    0.00522    0.00650
C14   1    0.435090    0.408172    0.308892    11.00000    0.03555    0.03383 =
         0.04590   -0.00612    0.00409    0.00585
AFIX  43
H14   2    0.410487    0.326904    0.291508    11.00000   -1.20000
AFIX   0
C15   1    0.552717    0.444123    0.380373    11.00000    0.03179    0.03479 =
         0.04384   -0.00233    0.00474    0.00267
C16   1    0.521680    0.648203    0.361860    11.00000    0.03675    0.03564 =
         0.04181   -0.00058    0.00504    0.00798
C17   1    0.402587    0.614803    0.290782    11.00000    0.03467    0.03765 =
         0.04532    0.00017    0.00666    0.00746
C18   1    0.336036    0.709177    0.252051    11.00000    0.04341    0.04538 =
         0.04605    0.00656   -0.00005    0.00793
AFIX  43
H18   2    0.255853    0.691436    0.204728    11.00000   -1.20000
AFIX   0
C19   1    0.386620    0.827380    0.282440    11.00000    0.05924    0.04209 =
         0.05557    0.00824    0.00638    0.01793
AFIX  43
H19   2    0.341784    0.888160    0.255197    11.00000   -1.20000
AFIX   0
C20   1    0.503896    0.855988    0.353350    11.00000    0.05480    0.03559 =
         0.06169   -0.00444    0.00997    0.00661
AFIX  43
H20   2    0.536346    0.935827    0.373757    11.00000   -1.20000
AFIX   0
C21   1    0.572884    0.766863    0.393902    11.00000    0.04200    0.03791 =
         0.04756   -0.00284    0.00250    0.00608
AFIX  43
H21   2    0.651751    0.785583    0.441531    11.00000   -1.20000
AFIX   0
C22   1    0.629733    0.365375    0.428224    11.00000    0.03273    0.03308 =
         0.04864   -0.00041    0.00287    0.00205
AFIX  43
H22   2    0.601411    0.284077    0.410930    11.00000   -1.20000
AFIX   0
C23   1    0.745921    0.395839    0.500002    11.00000    0.03118    0.03360 =
         0.04456   -0.00021    0.00720    0.00397
C24   1    0.953494    0.489242    0.621119    11.00000    0.03207    0.03884 =
         0.04261    0.00147    0.00676    0.00329
C25   1    0.938039    0.364580    0.612285    11.00000    0.02921    0.04244 =
         0.04047    0.00201    0.00443    0.00321
C26   1    1.036381    0.302368    0.667377    11.00000    0.03888    0.04074 =
         0.04980    0.00514    0.00603    0.00541
AFIX  43
H26   2    1.027701    0.219133    0.661493    11.00000   -1.20000
AFIX   0
C27   1    1.146970    0.370754    0.730922    11.00000    0.04099    0.04948 =
         0.05121    0.00780   -0.00019    0.00771
AFIX  43
H27   2    1.214269    0.332192    0.768364    11.00000   -1.20000
AFIX   0
C28   1    1.160763    0.495813    0.740633    11.00000    0.04275    0.05139 =
         0.04623   -0.00258    0.00140    0.00240
AFIX  43
H28   2    1.236129    0.538636    0.784224    11.00000   -1.20000
AFIX   0
C29   1    1.063680    0.556405    0.686194    11.00000    0.03592    0.04037 =
         0.04649   -0.00259    0.00367    0.00129
AFIX  43
H29   2    1.071447    0.639515    0.692678    11.00000   -1.20000
AFIX   0
C30   1    0.774944    0.182529    0.522437    11.00000    0.03772    0.03090 =
         0.05300   -0.00058    0.00136    0.00291
AFIX  23
H30A  2    0.653770    0.161675    0.495938    11.00000   -1.20000
H30B  2    0.792177    0.139986    0.569166    11.00000   -1.20000
AFIX   0
C31   1    0.885607    0.142628    0.470080    11.00000    0.04848    0.03785 =
         0.07431   -0.00674    0.00901    0.00917
AFIX 137
H31A  2    0.864243    0.181395    0.422589    11.00000   -1.50000
H31B  2    0.857000    0.056880    0.458638    11.00000   -1.50000
H31C  2    1.005720    0.164319    0.495825    11.00000   -1.50000
AFIX   0
N1    3   -0.619134   -0.020563   -0.170848    11.00000    0.06992    0.12272 =
         0.05679   -0.01331   -0.00446   -0.02906
N2    3    0.818260    0.314152    0.544197    11.00000    0.03250    0.03096 =
         0.04316   -0.00025    0.00302    0.00392
O1    4    0.595908    0.563106    0.405718    11.00000    0.03739    0.03115 =
         0.04487   -0.00189    0.00105    0.00383
S1    6    0.819540    0.542189    0.543598    11.00000    0.03440    0.03242 =
         0.04319   -0.00200    0.00101    0.00361
MOLE    2
O2    4    0.669941    0.889956    0.699682    11.00000    0.13110    0.04388 =
         0.10668    0.01580    0.06941    0.03155
O3    4    0.873628    0.792562    0.656654    11.00000    0.06508    0.04051 =
         0.10312    0.02056    0.03040    0.01726
O4    4    0.684519    0.890062    0.570536    11.00000    0.06307    0.07025 =
         0.06482   -0.00407   -0.01360   -0.00135
O5    4    0.906941    1.003671    0.663202    11.00000    0.06128    0.04194 =
         0.09438    0.01199   -0.02302   -0.01135
CL1   5    0.785456    0.894085    0.647977    11.00000    0.04784    0.03244 =
         0.05633    0.00074    0.00406    0.00371
MOLE    3
O1S   4   -0.514681    0.496327   -0.075151    10.12500    0.11200    0.75693 =
         0.19063    0.29073    0.11609    0.19397
C1S   1   -0.570510    0.452732   -0.020260    10.25000    0.18334    0.28158 =
         0.30330   -0.09935    0.04206    0.15436
C2S   1   -0.765462    0.395770   -0.037854    10.25000    0.84551    0.34722 =
         0.25760    0.25309    0.41264    0.43239
HKLF    4
 
REM  LDS867 in P -1
REM R1 =  0.0715 for   4498 Fo > 4sig(Fo)  and  0.0824 for all   5359 data
REM    391 parameters refined using      2 restraints
 
END
 
WGHT      0.1026      1.0579
REM Highest difference peak  0.657,  deepest hole -0.361,  1-sigma level  0.069
Q1    1  -1.0541  0.1149 -0.1570  11.00000  0.05    0.54
Q2    1  -0.8393  0.5080  0.0026  11.00000  0.05    0.44
Q3    1  -0.9801  0.3644 -0.0889  11.00000  0.05    0.42
Q4    1   0.7816  0.9139  0.7199  11.00000  0.05    0.39
Q5    1  -0.5718 -0.0859 -0.1518  11.00000  0.05    0.35
Q6    1  -0.5441  0.4402 -0.0951  11.00000  0.05    0.34
Q7    1   0.6613  0.3772  0.4560  11.00000  0.05    0.33
Q8    1  -0.8654  0.2825 -0.0804  11.00000  0.05    0.29
Q9    1  -0.6103 -0.2221 -0.1653  11.00000  0.05    0.29
Q10   1  -0.4049  0.0789 -0.0907  11.00000  0.05    0.27
Q11   1  -0.5669 -0.0282 -0.2614  11.00000  0.05    0.26
Q12   1  -0.6191  0.5033 -0.0693  11.00000  0.05    0.25
Q13   1  -0.4369  0.5990 -0.0482  11.00000  0.05    0.24
Q14   1  -0.5201  0.4732 -0.0317  11.00000  0.05    0.24
Q15   1   0.9316  0.5403  0.4987  11.00000  0.05    0.23
Q16   1   0.9671  0.9991  0.6273  11.00000  0.05    0.23
Q17   1   0.4962  0.4237  0.3446  11.00000  0.05    0.23
Q18   1   1.1926  0.1319  0.6391  11.00000  0.05    0.22
Q19   1   0.9685  0.7014  0.6211  11.00000  0.05    0.22
Q20   1  -0.6377  0.4590 -0.0280  11.00000  0.05    0.21
Q21   1   0.1276  0.5384  0.1641  11.00000  0.05    0.21
Q22   1   1.2827  0.3224  0.7595  11.00000  0.05    0.21
Q23   1   0.9964  0.6612  0.7765  11.00000  0.05    0.21
Q24   1   0.5456  0.8828  0.5092  11.00000  0.05    0.20
Q25   1   0.9062  0.5186  0.5923  11.00000  0.05    0.20
;
_cod_data_source_file            jp501159g_si_003.cif
_cod_data_source_block           LDS867
_cod_depositor_comments
;
The following automatic conversions were performed:

'_exptl_absorpt_correction_type' value 'Multi-scan' changed to
'multi-scan' according to
/usr/data/users/saulius/crontab/automatic-downloads/rss-feeds/ACS/lib/dictionaries/cif_core.dic
dictionary named 'cif_core.dic' version 2.4.2 from 2011-04-26.

Automatic conversion script
Id: cif_fix_values 2281 2013-09-26 08:29:07Z andrius 

 Adding full bibliography for 1516695--1516701.cif.
;
_cod_original_formula_sum        'C31.50 H29 Cl N2 O5.125 S'
_cod_database_code               1516701
loop_
_symmetry_equiv_pos_as_xyz
'x, y, z'
'-x, -y, -z'
loop_
_atom_site_label
_atom_site_fract_x
_atom_site_fract_y
_atom_site_fract_z
_atom_site_U_iso_or_equiv
_atom_site_adp_type
_atom_site_calc_flag
_atom_site_refinement_flags
_atom_site_occupancy
_atom_site_type_symbol
C1 -0.4793(5) 0.0284(5) -0.1121(2) 0.0699(11) Uani d . 1 C
C2 -0.4446(5) 0.1518(4) -0.0875(2) 0.0708(11) Uani d . 1 C
H2 -0.5177 0.2016 -0.1121 0.085 Uiso calc R 1 H
C3 -0.3055(5) 0.2015(4) -0.0279(2) 0.0642(10) Uani d . 1 C
H3 -0.2854 0.284 -0.0144 0.077 Uiso calc R 1 H
C4 -0.1937(5) 0.1295(3) 0.0126(2) 0.0544(8) Uani d . 1 C
C5 -0.2308(5) 0.0064(4) -0.0106(2) 0.0624(10) Uani d . 1 C
H5 -0.1617 -0.044 0.016 0.075 Uiso calc R 1 H
C6 -0.3673(5) -0.0436(4) -0.0722(2) 0.0685(11) Uani d . 1 C
H6 -0.3845 -0.1255 -0.0871 0.082 Uiso calc R 1 H
C7 -0.7481(6) 0.0505(6) -0.2012(3) 0.114(2) Uani d . 1 C
H7A -0.7847 0.0875 -0.159 0.17 Uiso calc R 1 H
H7B -0.8458 -0.0003 -0.2348 0.17 Uiso calc R 1 H
H7C -0.7001 0.1118 -0.23 0.17 Uiso calc R 1 H
C8 -0.6464(6) -0.1446(6) -0.1975(3) 0.107(2) Uani d . 1 C
H8A -0.5429 -0.1637 -0.2103 0.161 Uiso calc R 1 H
H8B -0.74 -0.1608 -0.2428 0.161 Uiso calc R 1 H
H8C -0.6749 -0.193 -0.1574 0.161 Uiso calc R 1 H
C9 -0.0483(4) 0.1770(3) 0.0768(2) 0.0527(8) Uani d . 1 C
H9 0.005 0.1205 0.1052 0.063 Uiso calc R 1 H
C10 0.0184(4) 0.2939(3) 0.10002(19) 0.0513(8) Uani d . 1 C
H10 -0.028 0.3527 0.0712 0.062 Uiso calc R 1 H
C11 0.1572(4) 0.3316(3) 0.16688(19) 0.0468(7) Uani d . 1 C
H11 0.2045 0.272 0.1945 0.056 Uiso calc R 1 H
C12 0.2242(4) 0.4475(3) 0.19258(19) 0.0465(7) Uani d . 1 C
H12 0.1833 0.5066 0.1624 0.056 Uiso calc R 1 H
C13 0.3549(4) 0.4870(3) 0.26359(17) 0.0400(7) Uani d . 1 C
C14 0.4351(4) 0.4082(3) 0.30889(17) 0.0395(7) Uani d . 1 C
H14 0.4105 0.3269 0.2915 0.047 Uiso calc R 1 H
C15 0.5527(4) 0.4441(3) 0.38037(17) 0.0379(6) Uani d . 1 C
C16 0.5217(4) 0.6482(3) 0.36186(17) 0.0386(6) Uani d . 1 C
C17 0.4026(4) 0.6148(3) 0.29078(18) 0.0396(7) Uani d . 1 C
C18 0.3360(4) 0.7092(3) 0.25205(19) 0.0464(7) Uani d . 1 C
H18 0.2559 0.6914 0.2047 0.056 Uiso calc R 1 H
C19 0.3866(5) 0.8274(3) 0.2824(2) 0.0522(8) Uani d . 1 C
H19 0.3418 0.8882 0.2552 0.063 Uiso calc R 1 H
C20 0.5039(4) 0.8560(3) 0.3533(2) 0.0516(8) Uani d . 1 C
H20 0.5363 0.9358 0.3738 0.062 Uiso calc R 1 H
C21 0.5729(4) 0.7669(3) 0.39390(19) 0.0440(7) Uani d . 1 C
H21 0.6518 0.7856 0.4415 0.053 Uiso calc R 1 H
C22 0.6297(4) 0.3654(3) 0.42822(18) 0.0397(7) Uani d . 1 C
H22 0.6014 0.2841 0.4109 0.048 Uiso calc R 1 H
C23 0.7459(3) 0.3958(3) 0.50000(17) 0.0370(6) Uani d . 1 C
C24 0.9535(4) 0.4892(3) 0.62112(17) 0.0385(6) Uani d . 1 C
C25 0.9380(4) 0.3646(3) 0.61228(17) 0.0383(6) Uani d . 1 C
C26 1.0364(4) 0.3024(3) 0.66738(18) 0.0439(7) Uani d . 1 C
H26 1.0277 0.2191 0.6615 0.053 Uiso calc R 1 H
C27 1.1470(4) 0.3708(3) 0.73092(19) 0.0488(8) Uani d . 1 C
H27 1.2143 0.3322 0.7684 0.059 Uiso calc R 1 H
C28 1.1608(4) 0.4958(3) 0.74063(19) 0.0490(8) Uani d . 1 C
H28 1.2361 0.5386 0.7842 0.059 Uiso calc R 1 H
C29 1.0637(4) 0.5564(3) 0.68619(18) 0.0426(7) Uani d . 1 C
H29 1.0714 0.6395 0.6927 0.051 Uiso calc R 1 H
C30 0.7749(4) 0.1825(3) 0.52244(19) 0.0424(7) Uani d . 1 C
H30A 0.6538 0.1617 0.4959 0.051 Uiso calc R 1 H
H30B 0.7922 0.14 0.5692 0.051 Uiso calc R 1 H
C31 0.8856(4) 0.1426(3) 0.4701(2) 0.0545(9) Uani d . 1 C
H31A 0.8642 0.1814 0.4226 0.082 Uiso calc R 1 H
H31B 0.857 0.0569 0.4586 0.082 Uiso calc R 1 H
H31C 1.0057 0.1643 0.4958 0.082 Uiso calc R 1 H
N1 -0.6191(5) -0.0206(4) -0.1708(2) 0.0918(13) Uani d . 1 N
N2 0.8183(3) 0.3142(2) 0.54420(14) 0.0367(5) Uani d . 1 N
O1 0.5959(3) 0.56311(17) 0.40572(12) 0.0395(5) Uani d . 1 O
S1 0.81954(9) 0.54219(6) 0.54360(4) 0.0383(2) Uani d . 1 S
O2 0.6699(5) 0.8900(2) 0.6997(2) 0.0852(10) Uani d . 1 O
O3 0.8736(3) 0.7926(2) 0.65665(18) 0.0664(7) Uani d . 1 O
O4 0.6845(4) 0.8901(3) 0.57054(16) 0.0721(8) Uani d . 1 O
O5 0.9069(3) 1.0037(2) 0.66320(18) 0.0742(8) Uani d . 1 O
Cl1 0.78546(10) 0.89409(6) 0.64798(5) 0.0472(3) Uani d . 1 Cl
O1S -0.515(6) 0.496(9) -0.075(3) 0.32(6) Uani d PD 0.13 O
C1S -0.571(6) 0.453(4) -0.020(2) 0.25(3) Uani d PD 0.25 C
C2S -0.765(6) 0.396(4) -0.038(2) 0.40(6) Uani d PD 0.25 C
loop_
_atom_site_aniso_label
_atom_site_aniso_U_11
_atom_site_aniso_U_22
_atom_site_aniso_U_33
_atom_site_aniso_U_12
_atom_site_aniso_U_13
_atom_site_aniso_U_23
C1 0.049(2) 0.101(3) 0.046(2) -0.008(2) -0.0003(17) -0.007(2)
C2 0.058(2) 0.085(3) 0.053(2) -0.007(2) -0.0075(18) 0.002(2)
C3 0.050(2) 0.072(3) 0.057(2) -0.0051(18) -0.0055(17) 0.0001(18)
C4 0.0477(18) 0.062(2) 0.0436(18) -0.0044(16) 0.0022(15) -0.0097(15)
C5 0.052(2) 0.066(2) 0.061(2) 0.0007(17) 0.0053(17) -0.0159(18)
C6 0.056(2) 0.073(3) 0.066(2) -0.0171(19) 0.0173(19) -0.027(2)
C7 0.051(3) 0.183(6) 0.074(3) -0.017(3) -0.027(2) 0.007(3)
C8 0.069(3) 0.148(5) 0.077(3) -0.036(3) 0.008(2) -0.054(3)
C9 0.0454(18) 0.059(2) 0.0472(18) 0.0043(15) 0.0035(15) -0.0086(15)
C10 0.0480(18) 0.053(2) 0.0460(18) 0.0080(15) -0.0031(14) -0.0037(15)
C11 0.0406(16) 0.0470(18) 0.0471(18) 0.0058(13) 0.0003(14) -0.0035(14)
C12 0.0393(16) 0.0445(17) 0.0496(18) 0.0084(13) -0.0032(14) -0.0007(14)
C13 0.0325(14) 0.0419(16) 0.0437(16) 0.0065(12) 0.0052(12) -0.0006(13)
C14 0.0356(15) 0.0338(15) 0.0459(16) 0.0059(11) 0.0041(12) -0.0061(12)
C15 0.0318(14) 0.0348(15) 0.0438(16) 0.0027(11) 0.0047(12) -0.0023(12)
C16 0.0368(15) 0.0356(15) 0.0418(16) 0.0080(12) 0.0050(12) -0.0006(12)
C17 0.0347(15) 0.0377(16) 0.0453(16) 0.0075(12) 0.0067(13) 0.0002(12)
C18 0.0434(17) 0.0454(18) 0.0461(17) 0.0079(13) 0.0000(14) 0.0066(14)
C19 0.059(2) 0.0421(18) 0.056(2) 0.0179(15) 0.0064(16) 0.0082(15)
C20 0.0548(19) 0.0356(16) 0.062(2) 0.0066(14) 0.0100(16) -0.0044(14)
C21 0.0420(16) 0.0379(16) 0.0476(17) 0.0061(13) 0.0025(13) -0.0028(13)
C22 0.0327(14) 0.0331(15) 0.0486(17) 0.0021(11) 0.0029(12) -0.0004(12)
C23 0.0312(14) 0.0336(15) 0.0446(16) 0.0040(11) 0.0072(12) -0.0002(12)
C24 0.0321(14) 0.0388(16) 0.0426(16) 0.0033(11) 0.0068(12) 0.0015(12)
C25 0.0292(14) 0.0424(16) 0.0405(15) 0.0032(12) 0.0044(12) 0.0020(12)
C26 0.0389(16) 0.0407(17) 0.0498(18) 0.0054(13) 0.0060(13) 0.0051(13)
C27 0.0410(17) 0.0495(19) 0.0512(18) 0.0077(14) -0.0002(14) 0.0078(14)
C28 0.0428(17) 0.0514(19) 0.0462(18) 0.0024(14) 0.0014(14) -0.0026(14)
C29 0.0359(15) 0.0404(16) 0.0465(17) 0.0013(12) 0.0037(13) -0.0026(13)
C30 0.0377(15) 0.0309(15) 0.0530(18) 0.0029(12) 0.0014(13) -0.0006(13)
C31 0.0485(18) 0.0379(17) 0.074(2) 0.0092(14) 0.0090(17) -0.0067(15)
N1 0.070(2) 0.123(4) 0.057(2) -0.029(2) -0.0045(18) -0.013(2)
N2 0.0325(12) 0.0310(12) 0.0432(13) 0.0039(9) 0.0030(10) -0.0002(10)
O1 0.0374(10) 0.0312(10) 0.0449(11) 0.0038(8) 0.0010(9) -0.0019(8)
S1 0.0344(4) 0.0324(4) 0.0432(4) 0.0036(3) 0.0010(3) -0.0020(3)
O2 0.131(3) 0.0439(15) 0.107(2) 0.0316(16) 0.069(2) 0.0158(15)
O3 0.0651(16) 0.0405(13) 0.103(2) 0.0173(12) 0.0304(15) 0.0206(13)
O4 0.0631(16) 0.0702(18) 0.0648(17) -0.0013(13) -0.0136(13) -0.0041(13)
O5 0.0613(16) 0.0419(14) 0.094(2) -0.0114(11) -0.0230(14) 0.0120(13)
Cl1 0.0478(5) 0.0324(4) 0.0563(5) 0.0037(3) 0.0041(4) 0.0007(3)
O1S 0.11(3) 0.76(17) 0.19(5) 0.19(6) 0.12(3) 0.29(8)
C1S 0.18(5) 0.28(8) 0.30(7) 0.15(5) 0.04(5) -0.10(5)
C2S 0.85(16) 0.35(7) 0.26(6) 0.43(10) 0.41(9) 0.25(6)
loop_
_atom_type_symbol
_atom_type_description
_atom_type_scat_dispersion_real
_atom_type_scat_dispersion_imag
_atom_type_scat_source
C C 0.0033 0.0016 'International Tables Vol C Tables 4.2.6.8 and 6.1.1.4'
H H 0 0 'International Tables Vol C Tables 4.2.6.8 and 6.1.1.4'
N N 0.0061 0.0033 'International Tables Vol C Tables 4.2.6.8 and 6.1.1.4'
O O 0.0106 0.006 'International Tables Vol C Tables 4.2.6.8 and 6.1.1.4'
Cl Cl 0.1484 0.1585 'International Tables Vol C Tables 4.2.6.8 and 6.1.1.4'
S S 0.1246 0.1234 'International Tables Vol C Tables 4.2.6.8 and 6.1.1.4'
loop_
_geom_angle_atom_site_label_1
_geom_angle_atom_site_label_2
_geom_angle_atom_site_label_3
_geom_angle
_geom_angle_site_symmetry_1
_geom_angle_site_symmetry_3
N1 C1 C2 121.8(5) . .
N1 C1 C6 121.4(5) . .
C2 C1 C6 116.8(4) . .
C3 C2 C1 122.2(4) . .
C3 C2 H2 118.9 . .
C1 C2 H2 118.9 . .
C2 C3 C4 121.2(4) . .
C2 C3 H3 119.4 . .
C4 C3 H3 119.4 . .
C5 C4 C3 116.6(3) . .
C5 C4 C9 120.1(4) . .
C3 C4 C9 123.2(3) . .
C6 C5 C4 122.5(4) . .
C6 C5 H5 118.8 . .
C4 C5 H5 118.8 . .
C5 C6 C1 120.7(4) . .
C5 C6 H6 119.6 . .
C1 C6 H6 119.6 . .
N1 C7 H7A 109.5 . .
N1 C7 H7B 109.5 . .
H7A C7 H7B 109.5 . .
N1 C7 H7C 109.5 . .
H7A C7 H7C 109.5 . .
H7B C7 H7C 109.5 . .
N1 C8 H8A 109.5 . .
N1 C8 H8B 109.5 . .
H8A C8 H8B 109.5 . .
N1 C8 H8C 109.5 . .
H8A C8 H8C 109.5 . .
H8B C8 H8C 109.5 . .
C10 C9 C4 127.5(4) . .
C10 C9 H9 116.2 . .
C4 C9 H9 116.2 . .
C9 C10 C11 123.2(3) . .
C9 C10 H10 118.4 . .
C11 C10 H10 118.4 . .
C12 C11 C10 124.6(3) . .
C12 C11 H11 117.7 . .
C10 C11 H11 117.7 . .
C11 C12 C13 125.2(3) . .
C11 C12 H12 117.4 . .
C13 C12 H12 117.4 . .
C14 C13 C12 122.4(3) . .
C14 C13 C17 117.1(3) . .
C12 C13 C17 120.5(3) . .
C13 C14 C15 123.1(3) . .
C13 C14 H14 118.5 . .
C15 C14 H14 118.5 . .
O1 C15 C22 116.5(3) . .
O1 C15 C14 119.6(3) . .
C22 C15 C14 123.9(3) . .
O1 C16 C21 115.4(3) . .
O1 C16 C17 121.4(3) . .
C21 C16 C17 123.2(3) . .
C16 C17 C18 116.0(3) . .
C16 C17 C13 118.5(3) . .
C18 C17 C13 125.5(3) . .
C19 C18 C17 121.7(3) . .
C19 C18 H18 119.2 . .
C17 C18 H18 119.2 . .
C18 C19 C20 120.3(3) . .
C18 C19 H19 119.9 . .
C20 C19 H19 119.9 . .
C21 C20 C19 120.4(3) . .
C21 C20 H20 119.8 . .
C19 C20 H20 119.8 . .
C20 C21 C16 118.4(3) . .
C20 C21 H21 120.8 . .
C16 C21 H21 120.8 . .
C15 C22 C23 126.3(3) . .
C15 C22 H22 116.8 . .
C23 C22 H22 116.8 . .
N2 C23 C22 123.6(3) . .
N2 C23 S1 111.5(2) . .
C22 C23 S1 125.0(2) . .
C25 C24 C29 121.1(3) . .
C25 C24 S1 111.2(2) . .
C29 C24 S1 127.6(2) . .
C24 C25 N2 112.2(3) . .
C24 C25 C26 121.1(3) . .
N2 C25 C26 126.6(3) . .
C27 C26 C25 116.9(3) . .
C27 C26 H26 121.6 . .
C25 C26 H26 121.6 . .
C26 C27 C28 122.2(3) . .
C26 C27 H27 118.9 . .
C28 C27 H27 118.9 . .
C29 C28 C27 120.7(3) . .
C29 C28 H28 119.7 . .
C27 C28 H28 119.7 . .
C28 C29 C24 118.0(3) . .
C28 C29 H29 121 . .
C24 C29 H29 121 . .
N2 C30 C31 111.7(2) . .
N2 C30 H30A 109.3 . .
C31 C30 H30A 109.3 . .
N2 C30 H30B 109.3 . .
C31 C30 H30B 109.3 . .
H30A C30 H30B 107.9 . .
C30 C31 H31A 109.5 . .
C30 C31 H31B 109.5 . .
H31A C31 H31B 109.5 . .
C30 C31 H31C 109.5 . .
H31A C31 H31C 109.5 . .
H31B C31 H31C 109.5 . .
C1 N1 C8 120.7(5) . .
C1 N1 C7 120.0(5) . .
C8 N1 C7 119.0(4) . .
C23 N2 C25 114.2(2) . .
C23 N2 C30 123.0(2) . .
C25 N2 C30 122.7(2) . .
C15 O1 C16 120.3(2) . .
C24 S1 C23 90.81(15) . .
O5 Cl1 O4 108.18(17) . .
O5 Cl1 O2 110.6(2) . .
O4 Cl1 O2 107.9(2) . .
O5 Cl1 O3 110.48(19) . .
O4 Cl1 O3 110.20(18) . .
O2 Cl1 O3 109.42(17) . .
C1S O1S C1S 57(5) . 2_465
O1S C1S C1S 78(5) . 2_465
O1S C1S C2S 117(5) . .
C1S C1S C2S 149(4) 2_465 .
O1S C1S O1S 123(5) . 2_465
C1S C1S O1S 45(2) 2_465 2_465
C2S C1S O1S 114(4) . 2_465
loop_
_geom_bond_atom_site_label_1
_geom_bond_atom_site_label_2
_geom_bond_site_symmetry_2
_geom_bond_distance
C1 N1 . 1.375(5)
C1 C2 . 1.405(7)
C1 C6 . 1.405(6)
C2 C3 . 1.381(5)
C2 H2 . 0.93
C3 C4 . 1.409(6)
C3 H3 . 0.93
C4 C5 . 1.396(5)
C4 C9 . 1.452(5)
C5 C6 . 1.391(5)
C5 H5 . 0.93
C6 H6 . 0.93
C7 N1 . 1.436(7)
C7 H7A . 0.96
C7 H7B . 0.96
C7 H7C . 0.96
C8 N1 . 1.424(7)
C8 H8A . 0.96
C8 H8B . 0.96
C8 H8C . 0.96
C9 C10 . 1.352(5)
C9 H9 . 0.93
C10 C11 . 1.433(4)
C10 H10 . 0.93
C11 C12 . 1.350(5)
C11 H11 . 0.93
C12 C13 . 1.451(4)
C12 H12 . 0.93
C13 C14 . 1.367(4)
C13 C17 . 1.463(4)
C14 C15 . 1.403(4)
C14 H14 . 0.93
C15 O1 . 1.362(4)
C15 C22 . 1.380(4)
C16 O1 . 1.388(4)
C16 C21 . 1.392(4)
C16 C17 . 1.399(4)
C17 C18 . 1.406(4)
C18 C19 . 1.379(5)
C18 H18 . 0.93
C19 C20 . 1.385(5)
C19 H19 . 0.93
C20 C21 . 1.379(5)
C20 H20 . 0.93
C21 H21 . 0.93
C22 C23 . 1.394(4)
C22 H22 . 0.93
C23 N2 . 1.355(4)
C23 S1 . 1.746(3)
C24 C25 . 1.391(4)
C24 C29 . 1.396(4)
C24 S1 . 1.741(3)
C25 N2 . 1.400(4)
C25 C26 . 1.403(4)
C26 C27 . 1.385(5)
C26 H26 . 0.93
C27 C28 . 1.397(5)
C27 H27 . 0.93
C28 C29 . 1.380(5)
C28 H28 . 0.93
C29 H29 . 0.93
C30 N2 . 1.484(4)
C30 C31 . 1.515(5)
C30 H30A . 0.97
C30 H30B . 0.97
C31 H31A . 0.96
C31 H31B . 0.96
C31 H31C . 0.96
O2 Cl1 . 1.434(3)
O3 Cl1 . 1.435(3)
O4 Cl1 . 1.427(3)
O5 Cl1 . 1.424(3)
O1S C1S . 1.24(2)
O1S C1S 2_465 1.71(8)
C1S C1S 2_465 1.46(9)
C1S C2S . 1.55(2)
C1S O1S 2_465 1.71(8)
loop_
_geom_torsion_atom_site_label_1
_geom_torsion_atom_site_label_2
_geom_torsion_atom_site_label_3
_geom_torsion_atom_site_label_4
_geom_torsion
_geom_torsion_site_symmetry_1
_geom_torsion_site_symmetry_4
N1 C1 C2 C3 179.3(4) . .
C6 C1 C2 C3 1.2(6) . .
C1 C2 C3 C4 -1.7(6) . .
C2 C3 C4 C5 0.1(6) . .
C2 C3 C4 C9 -178.5(4) . .
C3 C4 C5 C6 2.1(6) . .
C9 C4 C5 C6 -179.3(3) . .
C4 C5 C6 C1 -2.6(6) . .
N1 C1 C6 C5 -177.2(4) . .
C2 C1 C6 C5 0.9(6) . .
C5 C4 C9 C10 170.8(4) . .
C3 C4 C9 C10 -10.7(6) . .
C4 C9 C10 C11 176.7(3) . .
C9 C10 C11 C12 -178.5(3) . .
C10 C11 C12 C13 174.7(3) . .
C11 C12 C13 C14 5.8(5) . .
C11 C12 C13 C17 -172.3(3) . .
C12 C13 C14 C15 -175.4(3) . .
C17 C13 C14 C15 2.8(4) . .
C13 C14 C15 O1 -2.5(4) . .
C13 C14 C15 C22 177.4(3) . .
O1 C16 C17 C18 179.7(3) . .
C21 C16 C17 C18 0.3(4) . .
O1 C16 C17 C13 0.9(4) . .
C21 C16 C17 C13 -178.5(3) . .
C14 C13 C17 C16 -2.0(4) . .
C12 C13 C17 C16 176.3(3) . .
C14 C13 C17 C18 179.3(3) . .
C12 C13 C17 C18 -2.4(5) . .
C16 C17 C18 C19 0.4(5) . .
C13 C17 C18 C19 179.1(3) . .
C17 C18 C19 C20 -1.0(5) . .
C18 C19 C20 C21 0.8(5) . .
C19 C20 C21 C16 0.0(5) . .
O1 C16 C21 C20 -179.9(3) . .
C17 C16 C21 C20 -0.5(5) . .
O1 C15 C22 C23 0.6(5) . .
C14 C15 C22 C23 -179.3(3) . .
C15 C22 C23 N2 -179.6(3) . .
C15 C22 C23 S1 -0.7(5) . .
C29 C24 C25 N2 178.6(3) . .
S1 C24 C25 N2 -0.6(3) . .
C29 C24 C25 C26 -1.9(4) . .
S1 C24 C25 C26 179.0(2) . .
C24 C25 C26 C27 0.8(4) . .
N2 C25 C26 C27 -179.7(3) . .
C25 C26 C27 C28 0.3(5) . .
C26 C27 C28 C29 -0.3(5) . .
C27 C28 C29 C24 -0.7(5) . .
C25 C24 C29 C28 1.8(4) . .
S1 C24 C29 C28 -179.2(2) . .
C2 C1 N1 C8 176.7(4) . .
C6 C1 N1 C8 -5.3(6) . .
C2 C1 N1 C7 -9.1(7) . .
C6 C1 N1 C7 169.0(4) . .
C22 C23 N2 C25 176.9(3) . .
S1 C23 N2 C25 -2.1(3) . .
C22 C23 N2 C30 -2.9(4) . .
S1 C23 N2 C30 178.1(2) . .
C24 C25 N2 C23 1.7(4) . .
C26 C25 N2 C23 -177.8(3) . .
C24 C25 N2 C30 -178.4(2) . .
C26 C25 N2 C30 2.1(4) . .
C31 C30 N2 C23 86.6(4) . .
C31 C30 N2 C25 -93.3(3) . .
C22 C15 O1 C16 -178.7(2) . .
C14 C15 O1 C16 1.2(4) . .
C21 C16 O1 C15 178.9(2) . .
C17 C16 O1 C15 -0.5(4) . .
C25 C24 S1 C23 -0.4(2) . .
C29 C24 S1 C23 -179.6(3) . .
N2 C23 S1 C24 1.4(2) . .
C22 C23 S1 C24 -177.5(3) . .
C1S O1S C1S C2S 151(6) 2_465 .
C1S O1S C1S O1S 0.000(3) 2_465 2_465
