#------------------------------------------------------------------------------
#$Date: 2016-02-18 17:37:37 +0200 (Thu, 18 Feb 2016) $
#$Revision: 176729 $
#$URL: svn://www.crystallography.net/cod/cif/1/51/71/1517192.cif $
#------------------------------------------------------------------------------
#
# This file is available in the Crystallography Open Database (COD),
# http://www.crystallography.net/
#
# All data on this site have been placed in the public domain by the
# contributors.
#
data_1517192
loop_
_publ_author_name
'Pang, Jiandong'
'Jiang, Feilong'
'Yuan, Daqiang'
'Zheng, Jun'
'Wu, Mingyan'
'Liu, Guoliang'
'Su, Kongzhao'
'Hong, Maochun'
_publ_section_title
;
 SO42&#x2212;anion directed hexagonal-prismatic cages via cooperative
 C--H&#x22EF;O hydrogen bonds
;
_journal_issue                   11
_journal_name_full               'Chem. Sci.'
_journal_page_first              4163
_journal_paper_doi               10.1039/C4SC01973C
_journal_volume                  5
_journal_year                    2014
_chemical_formula_sum            'C158 H190 N48 Ni16 O60 S7'
_chemical_formula_weight         4885.35
_chemical_name_systematic
;
 ?
;
_space_group_crystal_system      tetragonal
_space_group_IT_number           92
_space_group_name_Hall           'P 4abw 2nw'
_space_group_name_H-M_alt        'P 41 21 2'
_symmetry_space_group_name_Hall  'P 4abw 2nw'
_symmetry_space_group_name_H-M   'P 41 21 2'
_atom_sites_solution_hydrogens   geom
_audit_creation_method           SHELXL-2013
_cell_angle_alpha                90
_cell_angle_beta                 90
_cell_angle_gamma                90
_cell_formula_units_Z            4
_cell_length_a                   31.2000(3)
_cell_length_b                   31.2000(3)
_cell_length_c                   25.3435(4)
_cell_measurement_reflns_used    12936
_cell_measurement_temperature    173(2)
_cell_measurement_theta_max      64.4480
_cell_measurement_theta_min      4.0020
_cell_volume                     24670.4(5)
_computing_structure_refinement  'SHELXL-2013 (Sheldrick, 2013)'
_diffrn_ambient_temperature      173(2)
_diffrn_detector_area_resol_mean 10.5594
_diffrn_measured_fraction_theta_full 0.998
_diffrn_measured_fraction_theta_max 0.986
_diffrn_measurement_device_type  'SuperNova, Dual, Cu at zero, Atlas'
_diffrn_measurement_method       '\w scans'
_diffrn_radiation_type           CuK\a
_diffrn_radiation_wavelength     1.54178
_diffrn_reflns_av_unetI/netI     0.0448
_diffrn_reflns_Laue_measured_fraction_full 0.998
_diffrn_reflns_Laue_measured_fraction_max 0.986
_diffrn_reflns_limit_h_max       39
_diffrn_reflns_limit_h_min       -32
_diffrn_reflns_limit_k_max       38
_diffrn_reflns_limit_k_min       -38
_diffrn_reflns_limit_l_max       30
_diffrn_reflns_limit_l_min       -30
_diffrn_reflns_number            59895
_diffrn_reflns_point_group_measured_fraction_full 0.995
_diffrn_reflns_point_group_measured_fraction_max 0.976
_diffrn_reflns_theta_full        67.679
_diffrn_reflns_theta_max         76.368
_diffrn_reflns_theta_min         3.167
_exptl_absorpt_coefficient_mu    2.462
_exptl_absorpt_correction_T_max  1.00000
_exptl_absorpt_correction_T_min  0.60865
_exptl_absorpt_correction_type   multi-scan
_exptl_absorpt_process_details
;
CrysAlisPro, Agilent Technologies,
Version 1.171.36.28 (release 01-02-2013 CrysAlis171 .NET)
(compiled Feb  1 2013,16:14:44)
Empirical absorption correction using spherical harmonics,
 implemented in SCALE3 ABSPACK scaling algorithm.
;
_exptl_crystal_colour            green
_exptl_crystal_density_diffrn    1.315
_exptl_crystal_description       prism
_exptl_crystal_F_000             10056
_exptl_crystal_size_max          0.12
_exptl_crystal_size_mid          0.08
_exptl_crystal_size_min          0.06
_platon_squeeze_details
;
;
_refine_diff_density_max         1.448
_refine_diff_density_min         -0.886
_refine_diff_density_rms         0.156
_refine_ls_abs_structure_details
;
 Flack x determined using 5335 quotients [(I+)-(I-)]/[(I+)+(I-)]
 (Parsons and Flack (2004), Acta Cryst. A60, s61).
;
_refine_ls_abs_structure_Flack   0.092(10)
_refine_ls_extinction_method     none
_refine_ls_goodness_of_fit_ref   1.172
_refine_ls_hydrogen_treatment    constr
_refine_ls_matrix_type           full
_refine_ls_number_parameters     1251
_refine_ls_number_reflns         25295
_refine_ls_number_restraints     44
_refine_ls_restrained_S_all      1.172
_refine_ls_R_factor_all          0.1485
_refine_ls_R_factor_gt           0.1149
_refine_ls_shift/su_max          0.008
_refine_ls_shift/su_mean         0.000
_refine_ls_structure_factor_coef Fsqd
_refine_ls_weighting_details
'w=1/[\s^2^(Fo^2^)+(0.2000P)^2^] where P=(Fo^2^+2Fc^2^)/3'
_refine_ls_weighting_scheme      calc
_refine_ls_wR_factor_gt          0.3125
_refine_ls_wR_factor_ref         0.3425
_reflns_Friedel_coverage         0.823
_reflns_Friedel_fraction_full    0.992
_reflns_Friedel_fraction_max     0.965
_reflns_number_gt                15181
_reflns_number_total             25295
_reflns_threshold_expression     'I > 2\s(I)'
_cod_data_source_file            c4sc01973c2.cif
_cod_data_source_block           I
_cod_depositor_comments
'Adding full bibliography for 1517188--1517192.cif.'
_cod_original_cell_volume        24670.4(6)
_cod_database_code               1517192
#BEGIN Tags that were not found in dictionaries:
_shelx_space_group_comment
;
The symmetry employed for this shelxl refinement is uniquely defined
by the following loop, which should always be used as a source of
symmetry information in preference to the above space-group names.
They are only intended as comments.
;
_shelxl_version_number           2013-4
_shelx_res_file
;
REM  a in P4(1)2(1)2
REM R1 =  0.2360 for  15076 Fo > 4sig(Fo)  and  0.2960 for all  25295 data
REM    551 parameters refined using      0 restraints
REM Highest difference peak  5.217,  deepest hole -2.106,  1-sigma level  0.437
REM  a in P4(1)2(1)2
REM R1 =  0.1175 for   15181 Fo > 4sig(Fo)  and  0.1499 for all   25295 data
REM   1275 parameters refined using      0 restraints
REM Highest difference peak  1.553,  deepest hole -0.690,  1-sigma level  0.172
REM  a in P4(1)2(1)2
REM R1 =  0.1096 for   15181 Fo > 4sig(Fo)  and  0.1432 for all   25295 data
REM   1274 parameters refined using     14 restraints
REM Highest difference peak  1.088,  deepest hole -0.703,  1-sigma level  0.147
REM  a in P4(1)2(1)2
REM R1 =  0.1075 for   15181 Fo > 4sig(Fo)  and  0.1430 for all   25295 data
REM   1268 parameters refined using     26 restraints
REM Highest difference peak  1.070,  deepest hole -0.668,  1-sigma level  0.136
REM  a in P4(1)2(1)2
REM R1 =  0.1119 for   15181 Fo > 4sig(Fo)  and  0.1455 for all   25295 data
REM   1260 parameters refined using     26 restraints
REM Highest difference peak  1.098,  deepest hole -0.890,  1-sigma level  0.151
TITL a in P4(1)2(1)2
CELL 1.54178 31.2000 31.2000 25.3435 90.000 90.000 90.000
ZERR 4.0000 0.0003 0.0003 0.0004 0.000 0.000 0.000
LATT -1
SYMM 0.5-Y, 0.5+X, 0.25+Z
SYMM -X, -Y, 0.5+Z
SYMM 0.5+Y, 0.5-X, 0.75+Z
SYMM 0.5+X, 0.5-Y, 0.75-Z
SYMM 0.5-X, 0.5+Y, 0.25-Z
SYMM Y, X, -Z
SYMM -Y, -X, 0.5-Z
SFAC C H N O NI S
UNIT 632 760 192 240 64 28
MERG 2
FMAP 2
GRID
PLAN 60
TEMP -100
EADP C63 C64 C65 C57 C59
FLAT 0.05 C63 C64 C65 N19 N20
DFIX 1.38 0.02 N19 C63 C63 C65 C65 N20 N20 C64 C64 N19
DFIX 2.20 0.02 N19 C65 C63 N20 C65 C64 N20 N19 C64 C63
FLAT 0.02 C62 C60 C58 C61
DFIX 1.40 0.02 C60 C62
EADP C77 C76 C75
FLAT 0.05 N16 C41 C42 C40 N15
DFIX 1.38 0.02 N16 C41 C41 C42 C42 N15 N15 C40 C40 N16
DFIX 2.20 0.02 N16 C42 C41 N15 C42 C40 N15 N16 C40 C41
EADP C44 C46
EADP C78 C62 C10 C79
EADP O9 O7 O8
DFIX 1.50 0.02 S2 O30 S2 O31 S2 O32
DFIX 2.50 0.02 O30 O31 O31 O32 O32 O30
ISOR 0.005 O30 O31 O32
EADP C41 C42
L.S. 20
ACTA
WGHT    0.200000
FVAR       0.36441
NI1   5    0.562499    0.165917   -0.336706    11.00000    0.18999    0.10521 =
         0.11934    0.00511   -0.08210    0.02544
NI2   5    0.567291    0.126104   -0.226003    11.00000    0.08999    0.07400 =
         0.07049   -0.00638   -0.02170    0.01798
NI3   5    0.643127    0.180381   -0.269360    11.00000    0.12994    0.07060 =
         0.06650    0.01231   -0.01619   -0.00322
NI4   5    0.623717    0.089203   -0.315485    11.00000    0.09755    0.07366 =
         0.05272    0.00195   -0.01086   -0.00759
NI5   5    0.807180   -0.054098   -0.044777    11.00000    0.06595    0.07355 =
         0.08041    0.00226   -0.00102    0.01272
NI6   5    0.848564    0.036156   -0.031728    11.00000    0.06341    0.08661 =
         0.10149   -0.00197   -0.01110   -0.00246
NI7   5    0.771258    0.008424    0.038388    11.00000    0.07318    0.10054 =
         0.06913    0.00071   -0.00686    0.02590
NI8   5    0.861213   -0.033803    0.051580    11.00000    0.07936    0.09083 =
         0.10092   -0.00302   -0.02143    0.02363
S1    6    0.876209   -0.123791    0.000000    10.50000    0.09019    0.09019 =
         0.09715    0.00153   -0.00153    0.03018
S2    6    0.709991    0.064792   -0.139367    11.00000    0.06576    0.06317 =
         0.05828    0.00380   -0.00222   -0.00070
S3    6    0.467764    0.139807   -0.266495    11.00000    0.20674    0.18459 =
         0.12933   -0.00172   -0.01938    0.01846
S4    6    0.506749    0.268800   -0.268740    11.00000    0.20426    0.19277 =
         0.15214    0.01523   -0.01853    0.01392
O1    4    0.631617    0.118172   -0.243909    11.00000    0.08095    0.05244 =
         0.05282    0.00104    0.00072   -0.00443
O2    4    0.560540    0.106321   -0.302708    11.00000    0.11147    0.07954 =
         0.06935   -0.01552   -0.02594    0.02005
O3    4    0.625346    0.152705   -0.341225    11.00000    0.14214    0.08539 =
         0.06356    0.01744   -0.02649   -0.00668
O4    4    0.576747    0.183849   -0.262622    11.00000    0.12247    0.08498 =
         0.08072    0.00818   -0.03447    0.01339
O5    4    0.646850    0.241984   -0.308906    11.00000    0.19056    0.08556 =
         0.11477    0.03188   -0.02586    0.00226
O6    4    0.605285    0.069658   -0.395317    11.00000    0.11634    0.11994 =
         0.05160    0.00420   -0.01869   -0.02536
O7    4    0.497595    0.140016   -0.222316    11.00000    0.13902    0.14434 =
         0.13827   -0.00349   -0.04725    0.01873
O8    4    0.490932    0.171394   -0.308585    11.00000    0.13902    0.14434 =
         0.13827   -0.00349   -0.04725    0.01873
O9    4    0.460680    0.098411   -0.297048    11.00000    0.13902    0.14434 =
         0.13827   -0.00349   -0.04725    0.01873
O10   4    0.420512    0.156415   -0.254304    11.00000    0.25833    0.27310 =
         0.13000   -0.06821   -0.04828    0.13522
O11   4    0.570648    0.229558   -0.367153    11.00000    0.27348    0.10684 =
         0.11602    0.02078   -0.08886    0.02263
O12   4    0.544059    0.266788   -0.246303    11.00000    0.19823    0.28611 =
         0.18832   -0.06501   -0.07683    0.08391
O13   4    0.516283    0.284983   -0.323742    11.00000    0.17155    0.22205 =
         0.20156   -0.00990   -0.01132   -0.00275
O14   4    0.483967    0.223903   -0.265896    11.00000    0.41127    0.17591 =
         0.17904    0.08030    0.02404    0.00025
O15   4    0.472385    0.298858   -0.246410    11.00000    0.25208    0.15582 =
         0.15584    0.01626    0.02579    0.06167
O16   4    0.736679    0.027718   -0.129832    10.90000    0.11189    0.09186 =
         0.07560    0.00916    0.00510   -0.00137
O17   4    0.674627    0.066706   -0.096880    10.90000    0.09111    0.11129 =
         0.06147    0.01203    0.02190    0.01866
O18   4    0.690455    0.065897   -0.190066    10.90000    0.10253    0.10864 =
         0.08894   -0.00369    0.00798   -0.01009
O19   4    0.738926    0.102723   -0.135792    11.00000    0.09413    0.07315 =
         0.11956   -0.00047   -0.02907   -0.01172
O20   4    0.798350   -0.051239    0.035793    11.00000    0.07409    0.08677 =
         0.07511    0.00106    0.00028    0.02984
O21   4    0.788457    0.010006   -0.040404    11.00000    0.05037    0.06073 =
         0.06648    0.00223   -0.00284    0.00445
O22   4    0.866382   -0.027477   -0.028677    11.00000    0.04902    0.09229 =
         0.09808    0.01256   -0.00482    0.01325
O23   4    0.835234    0.024974    0.047286    11.00000    0.07074    0.08990 =
         0.08561   -0.00117   -0.00562    0.02540
O24   4    0.766156    0.000081    0.122221    11.00000    0.11598    0.22265 =
         0.07618    0.01766    0.00347    0.06955
O25   4    0.913906    0.050450   -0.011922    11.00000    0.07995    0.10384 =
         0.16979   -0.01435   -0.01530   -0.01427
O26   4    0.831614   -0.118728   -0.023034    11.00000    0.08730    0.09544 =
         0.11915   -0.00566   -0.01766    0.02802
O27   4    0.884921   -0.093579    0.041364    11.00000    0.10197    0.08140 =
         0.13249   -0.01775   -0.04316    0.03477
O28   4    0.852154   -0.040493    0.132455    11.00000    0.14186    0.12748 =
         0.09576    0.00988   -0.02034    0.02701
O29   4    0.923584   -0.010120    0.066723    11.00000    0.08400    0.13414 =
         0.20154    0.01099   -0.04195    0.00887
O104  4    0.547342    0.141533   -0.408410    11.00000    0.20916    0.13220 =
         0.12060   -0.01229   -0.09474   -0.00427
N1    3    0.612650    0.025937   -0.289704    11.00000    0.06289    0.07049 =
         0.05957   -0.00053    0.00196    0.00213
N2    3    0.607946   -0.033249   -0.243854    11.00000    0.06025    0.06595 =
         0.06055   -0.00492    0.00119   -0.00763
N3    3    0.687742   -0.098317   -0.099714    11.00000    0.07415    0.05554 =
         0.07602   -0.00254   -0.00159   -0.00206
N4    3    0.748351   -0.081032   -0.060541    11.00000    0.05732    0.07790 =
         0.08860    0.02034   -0.00805    0.01012
N5    3    0.709813   -0.016995    0.029007    11.00000    0.07633    0.09415 =
         0.06879    0.01950    0.00668    0.01358
N6    3    0.646362   -0.037027    0.002943    11.00000    0.08245    0.08037 =
         0.06812    0.01395    0.01036    0.01312
N7    3    0.551875    0.012202   -0.139408    11.00000    0.05894    0.08064 =
         0.07021   -0.01145   -0.00323    0.00881
N8    3    0.554582    0.066984   -0.194632    11.00000    0.05889    0.06448 =
         0.06671   -0.00945   -0.00421    0.00386
N9    3    0.686223    0.073938   -0.332811    11.00000    0.08406    0.07136 =
         0.06427   -0.00621    0.00134   -0.02194
N10   3    0.746250    0.035193   -0.339208    11.00000    0.07971    0.07887 =
         0.06652   -0.00936    0.00055   -0.02111
N11   3    0.826217   -0.051331   -0.211495    11.00000    0.06975    0.09442 =
         0.08842   -0.02500    0.00268    0.00673
N12   3    0.823553   -0.058094   -0.124430    11.00000    0.06431    0.09068 =
         0.09226   -0.00302    0.00195    0.01071
N13   3    0.749438    0.068431    0.048679    11.00000    0.06673    0.09934 =
         0.07997   -0.00660   -0.00222    0.02833
N14   3    0.712240    0.128336    0.041410    11.00000    0.07588    0.10702 =
         0.07652   -0.02853   -0.00963    0.02658
N15   3    0.771206    0.148551   -0.297221    11.00000    0.13160    0.10076 =
         0.07044    0.00262    0.01708   -0.06413
N16   3    0.707030    0.175029   -0.285231    11.00000    0.12492    0.10003 =
         0.05671    0.00824    0.00245   -0.04793
N17   3    0.655331    0.209668   -0.197539    11.00000    0.12190    0.06783 =
         0.05821    0.00752   -0.00261   -0.00539
N18   3    0.689429    0.229859   -0.125389    11.00000    0.08726    0.05636 =
         0.07359    0.00097    0.01022   -0.01728
N19   3    0.805064    0.165612   -0.024343    11.00000    0.08078    0.08553 =
         0.10450   -0.02262   -0.02315   -0.01552
N20   3    0.832947    0.100341   -0.022612    11.00000    0.08532    0.06778 =
         0.13559   -0.00262   -0.01478   -0.00857
N21   3    0.573511    0.151756   -0.150223    11.00000    0.07615    0.06495 =
         0.06816   -0.00403   -0.00450    0.01557
N22   3    0.598594    0.173973   -0.075464    11.00000    0.05592    0.06303 =
         0.06508    0.00259    0.00134    0.00432
N23   3    0.861845    0.053999   -0.197871    11.00000    0.08405    0.07957 =
         0.13323   -0.01849    0.03419   -0.03082
N24   3    0.863548    0.039629   -0.109881    11.00000    0.06637    0.06514 =
         0.12304   -0.00408    0.01387   -0.00903
C1    1    0.624674    0.007417   -0.245174    11.00000    0.07358    0.07462 =
         0.05107   -0.00379    0.00652   -0.00755
AFIX  43
H1    2    0.641974    0.020117   -0.218583    11.00000   -1.20000
AFIX   0
C2    1    0.587044   -0.001601   -0.316248    11.00000    0.08753    0.09278 =
         0.05099   -0.01013   -0.00645   -0.00927
AFIX  43
H2    2    0.573038    0.004392   -0.348704    11.00000   -1.20000
AFIX   0
C3    1    0.584406   -0.039819   -0.288841    11.00000    0.07535    0.07919 =
         0.06417   -0.01052   -0.01025   -0.01052
C4    1    0.611039   -0.062790   -0.201895    11.00000    0.06780    0.06513 =
         0.06559   -0.01728   -0.00235   -0.00846
C5    1    0.648691   -0.066219   -0.172918    11.00000    0.06664    0.05961 =
         0.05648   -0.00297    0.00367   -0.00494
AFIX  43
H5    2    0.673319   -0.050069   -0.182436    11.00000   -1.20000
AFIX   0
C6    1    0.649694   -0.093834   -0.129539    11.00000    0.08644    0.05958 =
         0.06676   -0.01569   -0.00393    0.00056
C7    1    0.615565   -0.119306   -0.117219    11.00000    0.06247    0.06153 =
         0.08916   -0.00765   -0.00621   -0.00776
AFIX  43
H7    2    0.617791   -0.139117   -0.088885    11.00000   -1.20000
AFIX   0
C8    1    0.576912   -0.116518   -0.146200    11.00000    0.08647    0.05996 =
         0.07758   -0.02121    0.01693   -0.01683
C9    1    0.576172   -0.088298   -0.188810    11.00000    0.08383    0.06134 =
         0.06598   -0.01623   -0.00320   -0.00913
AFIX  43
H9    2    0.550921   -0.086453   -0.209632    11.00000   -1.20000
AFIX   0
C10   1    0.539051   -0.142660   -0.134025    11.00000    0.15292    0.11107 =
         0.13379   -0.02826    0.00082   -0.03703
C11   1    0.699553   -0.133746   -0.070867    11.00000    0.10519    0.06057 =
         0.10179    0.00522   -0.01168   -0.01176
AFIX  43
H11   2    0.684084   -0.159875   -0.068080    11.00000   -1.20000
AFIX   0
C12   1    0.737514   -0.124411   -0.047064    11.00000    0.08967    0.07584 =
         0.10608    0.03370   -0.01791    0.01218
AFIX  43
H12   2    0.753870   -0.143168   -0.025467    11.00000   -1.20000
AFIX   0
C13   1    0.718531   -0.069484   -0.091533    11.00000    0.06773    0.05154 =
         0.08399    0.00486    0.00421    0.01455
AFIX  43
H13   2    0.718197   -0.042065   -0.107829    11.00000   -1.20000
AFIX   0
C14   1    0.678973   -0.008362   -0.004094    11.00000    0.07982    0.06850 =
         0.06730    0.01561    0.00823    0.01964
AFIX  43
H14   2    0.679162    0.014287   -0.029146    11.00000   -1.20000
AFIX   0
C15   1    0.698995   -0.051595    0.058324    11.00000    0.09194    0.13936 =
         0.12024    0.06586    0.01269    0.02485
AFIX  43
H15   2    0.715474   -0.063863    0.085992    11.00000   -1.20000
AFIX   0
C16   1    0.657535   -0.066549    0.039717    11.00000    0.10939    0.11132 =
         0.12400    0.04796    0.03974    0.03195
AFIX  43
H16   2    0.641973   -0.091151    0.050707    11.00000   -1.20000
AFIX   0
C17   1    0.605034   -0.036330   -0.024979    11.00000    0.07963    0.06602 =
         0.06310   -0.00075    0.01991    0.01341
C18   1    0.573196   -0.060133   -0.002195    11.00000    0.08525    0.07110 =
         0.08695    0.00180    0.01662    0.01214
AFIX  43
H18   2    0.578831   -0.075953    0.029073    11.00000   -1.20000
AFIX   0
C19   1    0.531345   -0.061215   -0.025475    11.00000    0.08784    0.07137 =
         0.11520   -0.01591    0.02148    0.00337
C20   1    0.526255   -0.035874   -0.072809    11.00000    0.06559    0.06661 =
         0.11780   -0.01934    0.01521    0.00556
AFIX  43
H20   2    0.499129   -0.035115   -0.089812    11.00000   -1.20000
AFIX   0
C21   1    0.559230   -0.013184   -0.093508    11.00000    0.07976    0.06562 =
         0.07457   -0.01078    0.01463    0.00912
C22   1    0.598521   -0.012563   -0.070152    11.00000    0.05554    0.05640 =
         0.06434   -0.00898    0.00774   -0.00330
AFIX  43
H22   2    0.621136    0.004011   -0.084769    11.00000   -1.20000
AFIX   0
C23   1    0.495335   -0.085942   -0.002565    11.00000    0.08097    0.08472 =
         0.13525    0.00594    0.03062   -0.00702
AFIX 137
H23A  2    0.504626   -0.115438    0.004207    11.00000   -1.50000
H23B  2    0.471247   -0.086140   -0.027382    11.00000   -1.50000
H23C  2    0.486309   -0.072606    0.030635    11.00000   -1.50000
AFIX   0
C24   1    0.572359    0.047080   -0.154047    11.00000    0.07321    0.08352 =
         0.05525   -0.01100   -0.00390   -0.00754
AFIX  43
H24   2    0.597594    0.057063   -0.137047    11.00000   -1.20000
AFIX   0
C25   1    0.521034    0.040366   -0.209630    11.00000    0.08525    0.10348 =
         0.08245   -0.02040   -0.01593   -0.00001
AFIX  43
H25   2    0.503218    0.044328   -0.239635    11.00000   -1.20000
AFIX   0
C26   1    0.517893    0.007824   -0.174440    11.00000    0.07428    0.09231 =
         0.07972   -0.02892   -0.01112   -0.00991
AFIX  43
H26   2    0.496524   -0.013861   -0.173832    11.00000   -1.20000
AFIX   0
C27   1    0.711548    0.046362   -0.308711    11.00000    0.07042    0.07030 =
         0.05996   -0.01014    0.00251   -0.00822
AFIX  43
H27   2    0.706423    0.035472   -0.274279    11.00000   -1.20000
AFIX   0
C28   1    0.743140    0.057678   -0.384552    11.00000    0.11671    0.09718 =
         0.05269   -0.00933    0.02366   -0.04668
AFIX  43
H28   2    0.763227    0.057537   -0.412723    11.00000   -1.20000
AFIX   0
C29   1    0.705928    0.080663   -0.382642    11.00000    0.11354    0.08624 =
         0.05083   -0.01010    0.00793   -0.02317
AFIX  43
H29   2    0.695015    0.098259   -0.410127    11.00000   -1.20000
AFIX   0
C30   1    0.777309    0.004428   -0.325845    11.00000    0.06077    0.07502 =
         0.08264   -0.01786    0.01852   -0.02807
C31   1    0.786664   -0.006457   -0.274673    11.00000    0.06465    0.07123 =
         0.06539   -0.00764    0.00942   -0.01886
AFIX  43
H31   2    0.773401    0.008905   -0.246730    11.00000   -1.20000
AFIX   0
C32   1    0.815405   -0.039799   -0.262509    11.00000    0.06147    0.07205 =
         0.07292   -0.01751    0.00780   -0.01497
C33   1    0.834387   -0.058622   -0.307247    11.00000    0.07361    0.12216 =
         0.11339   -0.03486    0.02241   -0.00192
AFIX  43
H33   2    0.854155   -0.081301   -0.301469    11.00000   -1.20000
AFIX   0
C34   1    0.826934   -0.047302   -0.356578    11.00000    0.07743    0.10954 =
         0.07597   -0.01509    0.01796   -0.00264
C35   1    0.797646   -0.017138   -0.366695    11.00000    0.08192    0.10133 =
         0.07275   -0.01759    0.02463   -0.03753
AFIX  43
H35   2    0.790671   -0.010384   -0.402224    11.00000   -1.20000
AFIX   0
C36   1    0.848955   -0.073349   -0.401746    11.00000    0.10231    0.15813 =
         0.12607   -0.03273    0.04158    0.00925
AFIX 137
H36A  2    0.859526   -0.100633   -0.387688    11.00000   -1.50000
H36B  2    0.873021   -0.056820   -0.416009    11.00000   -1.50000
H36C  2    0.828124   -0.078925   -0.429863    11.00000   -1.50000
AFIX   0
C37   1    0.805652   -0.041296   -0.165445    11.00000    0.06561    0.07798 =
         0.08661    0.01061    0.00553   -0.00426
AFIX  43
H37   2    0.780780   -0.023783   -0.163816    11.00000   -1.20000
AFIX   0
C38   1    0.856892   -0.081464   -0.144604    11.00000    0.09000    0.09391 =
         0.09060   -0.00385    0.00530    0.01380
AFIX  43
H38   2    0.875939   -0.098209   -0.123861    11.00000   -1.20000
AFIX   0
C39   1    0.859329   -0.077846   -0.196713    11.00000    0.08981    0.09120 =
         0.09935   -0.00864    0.00939    0.03749
AFIX  43
H39   2    0.879826   -0.090941   -0.219263    11.00000   -1.20000
AFIX   0
C40   1    0.734744    0.144627   -0.270305    11.00000    0.11478    0.06754 =
         0.05728    0.00922    0.00103   -0.02796
AFIX  43
H40   2    0.729229    0.123373   -0.244336    11.00000   -1.20000
AFIX   0
C41   1    0.728385    0.199211   -0.322826    11.00000    0.19681    0.12849 =
         0.11459    0.05211    0.01913   -0.04036
AFIX  43
H41   2    0.717000    0.223638   -0.340269    11.00000   -1.20000
AFIX   0
C42   1    0.766547    0.183262   -0.330580    11.00000    0.19681    0.12849 =
         0.11459    0.05211    0.01913   -0.04036
AFIX  43
H42   2    0.787352    0.193645   -0.354782    11.00000   -1.20000
AFIX   0
C43   1    0.806328    0.119297   -0.294853    11.00000    0.10194    0.10015 =
         0.06776   -0.00972    0.01329   -0.06825
C44   1    0.817278    0.101778   -0.246674    11.00000    0.08382    0.10013 =
         0.13537   -0.03070    0.03388   -0.04996
AFIX  43
H44   2    0.802431    0.110523   -0.215769    11.00000   -1.20000
AFIX   0
C45   1    0.851506    0.069885   -0.242717    11.00000    0.08988    0.10807 =
         0.08186   -0.01334    0.03453   -0.04979
C46   1    0.869433    0.060664   -0.295123    11.00000    0.08382    0.10013 =
         0.13537   -0.03070    0.03388   -0.04996
AFIX  43
H46   2    0.891951    0.040231   -0.297097    11.00000   -1.20000
AFIX   0
C47   1    0.856318    0.079094   -0.341092    11.00000    0.10263    0.14884 =
         0.09167   -0.03308    0.02929   -0.07636
C48   1    0.827696    0.108397   -0.339609    11.00000    0.09296    0.15770 =
         0.07461   -0.01348    0.02602   -0.07814
AFIX  43
H48   2    0.821052    0.123251   -0.371292    11.00000   -1.20000
AFIX   0
C49   1    0.880916    0.058788   -0.389872    11.00000    0.10873    0.21177 =
         0.09927   -0.07196    0.04760   -0.07462
AFIX 137
H49A  2    0.861141    0.040814   -0.410192    11.00000   -1.50000
H49B  2    0.904818    0.041253   -0.377089    11.00000   -1.50000
H49C  2    0.891980    0.081759   -0.412456    11.00000   -1.50000
AFIX   0
C50   1    0.841416    0.057327   -0.149173    11.00000    0.06335    0.08042 =
         0.11524   -0.00978    0.00792   -0.01171
AFIX  43
H50   2    0.814411    0.070861   -0.144465    11.00000   -1.20000
AFIX   0
C51   1    0.900683    0.029669   -0.182950    11.00000    0.10344    0.09373 =
         0.14464    0.01354    0.04937   -0.00422
C52   1    0.898989    0.019986   -0.136368    11.00000    0.07322    0.09318 =
         0.14724   -0.01603    0.02014   -0.02143
AFIX  43
H52   2    0.918948    0.001486   -0.119555    11.00000   -1.20000
AFIX   0
C53   1    0.688228    0.201882   -0.167839    11.00000    0.12154    0.06969 =
         0.06016   -0.00210    0.01582   -0.00447
AFIX  43
H53   2    0.708727    0.179984   -0.174284    11.00000   -1.20000
AFIX   0
C54   1    0.655847    0.255218   -0.132503    11.00000    0.08760    0.06327 =
         0.08705    0.01109    0.00988    0.00033
AFIX  43
H54   2    0.648488    0.278608   -0.110280    11.00000   -1.20000
AFIX   0
C55   1    0.634095    0.243522   -0.174614    11.00000    0.10741    0.06313 =
         0.08031    0.01321   -0.00361    0.00241
AFIX  43
H55   2    0.608304    0.256212   -0.186980    11.00000   -1.20000
AFIX   0
C56   1    0.721126    0.232352   -0.088039    11.00000    0.08024    0.05763 =
         0.06150   -0.00881    0.02046   -0.01277
C57   1    0.746850    0.195638   -0.074092    11.00000    0.10760    0.09951 =
         0.10823   -0.01441   -0.01097   -0.00285
AFIX  43
H57   2    0.740245    0.168202   -0.088171    11.00000   -1.20000
AFIX   0
C58   1    0.787731    0.240852   -0.015415    11.00000    0.08346    0.09551 =
         0.12964   -0.03546   -0.01675    0.00547
AFIX  43
H58   2    0.809146    0.243241    0.011069    11.00000   -1.20000
AFIX   0
C59   1    0.779539    0.200365   -0.041737    11.00000    0.10760    0.09951 =
         0.10823   -0.01441   -0.01097   -0.00285
C60   1    0.763438    0.275655   -0.030111    11.00000    0.09847    0.11348 =
         0.15157   -0.05146   -0.01026    0.00078
C61   1    0.731158    0.270372   -0.062429    11.00000    0.09723    0.07749 =
         0.11393   -0.02648   -0.00193   -0.00314
AFIX  43
H61   2    0.713210    0.294409   -0.068857    11.00000   -1.20000
AFIX   0
C63   1    0.835674    0.163843    0.013925    11.00000    0.10760    0.09951 =
         0.10823   -0.01441   -0.01097   -0.00285
AFIX  43
H63   2    0.843724    0.186855    0.036384    11.00000   -1.20000
AFIX   0
C64   1    0.803607    0.125809   -0.046289    11.00000    0.10760    0.09951 =
         0.10823   -0.01441   -0.01097   -0.00285
AFIX  43
H64   2    0.784898    0.117256   -0.073926    11.00000   -1.20000
AFIX   0
C65   1    0.852939    0.123537    0.014758    11.00000    0.10760    0.09951 =
         0.10823   -0.01441   -0.01097   -0.00285
AFIX  43
H65   2    0.875018    0.113722    0.037567    11.00000   -1.20000
AFIX   0
C66   1    0.605608    0.150464   -0.118080    11.00000    0.07438    0.06241 =
         0.05611    0.00235   -0.00401    0.01208
AFIX  43
H66   2    0.631107    0.134598   -0.124258    11.00000   -1.20000
AFIX   0
C67   1    0.543833    0.177327   -0.127613    11.00000    0.07451    0.07266 =
         0.08876   -0.01473   -0.01802    0.01979
AFIX  43
H67   2    0.516604    0.184213   -0.142090    11.00000   -1.20000
AFIX   0
C68   1    0.559646    0.191823   -0.079901    11.00000    0.06794    0.06598 =
         0.07460   -0.00649   -0.00360    0.01657
AFIX  43
H68   2    0.545900    0.210416   -0.055512    11.00000   -1.20000
AFIX   0
C69   1    0.627454    0.181827   -0.032409    11.00000    0.05400    0.08028 =
         0.06992   -0.00909    0.00435   -0.00830
C70   1    0.655471    0.151024   -0.017268    11.00000    0.05958    0.06949 =
         0.06140   -0.00537    0.01044   -0.00277
AFIX  43
H70   2    0.656176    0.123982   -0.034474    11.00000   -1.20000
AFIX   0
C71   1    0.683412    0.160255    0.024581    11.00000    0.05541    0.09163 =
         0.07109    0.00288    0.00706   -0.00408
C72   1    0.683097    0.200445    0.048330    11.00000    0.06495    0.09468 =
         0.06671   -0.01436    0.02287   -0.01229
AFIX  43
H72   2    0.702872    0.206647    0.075792    11.00000   -1.20000
AFIX   0
C73   1    0.654281    0.231387    0.032312    11.00000    0.07322    0.07546 =
         0.08438   -0.00960    0.00752   -0.01587
C74   1    0.625993    0.221693   -0.008125    11.00000    0.06589    0.07220 =
         0.07680   -0.00830    0.00957   -0.00269
AFIX  43
H74   2    0.605554    0.242372   -0.019255    11.00000   -1.20000
AFIX   0
C75   1    0.721595    0.092931    0.021131    11.00000    0.09674    0.14688 =
         0.09121   -0.02164   -0.03735    0.04008
AFIX  43
H75   2    0.709841    0.083865   -0.011597    11.00000   -1.20000
AFIX   0
C76   1    0.735588    0.125646    0.090182    11.00000    0.09674    0.14688 =
         0.09121   -0.02164   -0.03735    0.04008
AFIX  43
H76   2    0.737348    0.148026    0.115505    11.00000   -1.20000
AFIX   0
C77   1    0.753633    0.089151    0.094886    11.00000    0.09674    0.14688 =
         0.09121   -0.02164   -0.03735    0.04008
AFIX  43
H77   2    0.767544    0.078524    0.125556    11.00000   -1.20000
AFIX   0
C79   1    0.576979    0.259243   -0.397892    11.00000    0.15292    0.11107 =
         0.13379   -0.02826    0.00082   -0.03703
C78   1    0.654831    0.275706    0.058757    11.00000    0.15292    0.11107 =
         0.13379   -0.02826    0.00082   -0.03703
AFIX 137
H78A  2    0.662172    0.297580    0.032519    11.00000   -1.50000
H78B  2    0.676206    0.275921    0.087089    11.00000   -1.50000
H78C  2    0.626466    0.281879    0.073526    11.00000   -1.50000
AFIX   0
C62   1    0.778607    0.313386   -0.006112    11.00000    0.15292    0.11107 =
         0.13379   -0.02826    0.00082   -0.03703
AFIX 137
H62A  2    0.778634    0.336741   -0.031968    11.00000   -1.50000
H62B  2    0.807838    0.308720    0.006823    11.00000   -1.50000
H62C  2    0.759915    0.320976    0.023526    11.00000   -1.50000
AFIX   0
O31   4    0.724691    0.028466   -0.177622    10.10000    0.04760    0.04377 =
         0.04630    0.00085    0.00122    0.00277
O30   4    0.664282    0.076545   -0.156220    10.10000    0.01960    0.01737 =
         0.02114    0.00630    0.00172   -0.00096
O32   4    0.712762    0.049284   -0.084210    10.10000    0.07749
HKLF 4

REM  a in P4(1)2(1)2
REM R1 =  0.1149 for   15181 Fo > 4sig(Fo)  and  0.1485 for all   25295 data
REM   1251 parameters refined using     44 restraints

END

WGHT      0.2000      0.0000

REM Highest difference peak  1.448,  deepest hole -0.886,  1-sigma level  0.156
Q1    1   0.4587  0.0935 -0.3479  11.00000  0.05    1.45
Q2    1   0.7904 -0.0726 -0.0501  11.00000  0.05    0.88
Q3    1   0.9387  0.0187  0.0136  11.00000  0.05    0.85
Q4    1   0.8267 -0.0683 -0.0601  11.00000  0.05    0.83
Q5    1   0.7736 -0.0132  0.0183  11.00000  0.05    0.81
Q6    1   0.6240  0.1685 -0.2690  11.00000  0.05    0.81
Q7    1   0.8576  0.0116 -0.0280  11.00000  0.05    0.81
Q8    1   0.8636 -0.0552  0.0101  11.00000  0.05    0.77
Q9    1   0.5499  0.1549 -0.3299  11.00000  0.05    0.76
Q10   1   0.6663  0.1719 -0.2634  11.00000  0.05    0.74
Q11   1   0.9512 -0.0097  0.0870  11.00000  0.05    0.70
Q12   1   0.5041  0.1769 -0.3469  11.00000  0.05    0.69
Q13   1   0.5572  0.1861 -0.3202  11.00000  0.05    0.67
Q14   1   0.8464 -0.0639  0.0569  11.00000  0.05    0.65
Q15   1   0.7004  0.0967 -0.1686  11.00000  0.05    0.62
Q16   1   0.5539  0.2371 -0.4138  11.00000  0.05    0.61
Q17   1   0.7099  0.0214 -0.1719  11.00000  0.05    0.60
Q18   1   0.7391  0.0658 -0.1160  11.00000  0.05    0.59
Q19   1   0.6945  0.0483 -0.1439  11.00000  0.05    0.56
Q20   1   0.3824  0.1436 -0.2341  11.00000  0.05    0.53
Q21   1   0.6563  0.0943 -0.2443  11.00000  0.05    0.53
Q22   1   0.8705  0.1426 -0.0138  11.00000  0.05    0.51
Q23   1   0.6514  0.1188 -0.2385  11.00000  0.05    0.50
Q24   1   0.7231  0.0473 -0.1087  11.00000  0.05    0.50
Q25   1   0.5635  0.1418 -0.4259  11.00000  0.05    0.50
Q26   1   0.8770  0.0434 -0.1871  11.00000  0.05    0.50
Q27   1   0.8580  0.0018  0.0889  11.00000  0.05    0.48
Q28   1   0.7074  0.2424 -0.1376  11.00000  0.05    0.48
Q29   1   0.8502 -0.1420 -0.0264  11.00000  0.05    0.46
Q30   1   0.5446  0.1605 -0.3971  11.00000  0.05    0.46
Q31   1   0.8416 -0.0518 -0.1508  11.00000  0.05    0.45
Q32   1   0.7671 -0.0062 -0.3260  11.00000  0.05    0.45
Q33   1   0.8419 -0.0032  0.0557  11.00000  0.05    0.44
Q34   1   0.6626  0.2388 -0.1676  11.00000  0.05    0.44
Q35   1   0.7724  0.2222  0.1900  11.00000  0.05    0.43
Q36   1   0.7515  0.0334  0.0420  11.00000  0.05    0.43
Q37   1   0.8142  0.1333  0.0353  11.00000  0.05    0.43
Q38   1   0.8270  0.0646 -0.0196  11.00000  0.05    0.43
Q39   1   0.5805 -0.0633 -0.2952  11.00000  0.05    0.42
Q40   1   0.7548  0.1811 -0.3317  11.00000  0.05    0.42
Q41   1   0.5743 -0.0517 -0.2763  11.00000  0.05    0.42
Q42   1   0.7271 -0.0822  0.0466  11.00000  0.05    0.42
Q43   1   0.6535  0.0414 -0.2477  11.00000  0.05    0.40
Q44   1   0.7277  0.1682 -0.2783  11.00000  0.05    0.40
Q45   1   0.7031  0.2184 -0.1100  11.00000  0.05    0.40
Q46   1   0.6866  0.2145 -0.1648  11.00000  0.05    0.40
Q47   1   0.9088  0.0288  0.0901  11.00000  0.05    0.40
Q48   1   0.9275  0.1297  0.1341  11.00000  0.05    0.39
Q49   1   0.7744  0.1192  0.0683  11.00000  0.05    0.39
Q50   1   0.8029 -0.0628 -0.2163  11.00000  0.05    0.39
Q51   1   0.6800  0.1841 -0.0414  11.00000  0.05    0.39
Q52   1   0.5601  0.0492 -0.1843  11.00000  0.05    0.39
Q53   1   0.5739  0.1596 -0.1077  11.00000  0.05    0.38
Q54   1   0.5439  0.1396 -0.3740  11.00000  0.05    0.38
Q55   1   0.5876  0.1300 -0.1333  11.00000  0.05    0.37
Q56   1   0.7409  0.2005 -0.2980  11.00000  0.05    0.37
Q57   1   0.8802  0.1891  0.1365  11.00000  0.05    0.37
Q58   1   0.6078 -0.0337 -0.0609  11.00000  0.05    0.37
Q59   1   0.8465  0.0774 -0.0118  11.00000  0.05    0.37
Q60   1   0.8203  0.1017 -0.2886  11.00000  0.05    0.37
;
_shelx_res_checksum              12798
#END Tags that were not found in dictionaries
loop_
_space_group_symop_operation_xyz
'x, y, z'
'-y+1/2, x+1/2, z+1/4'
'-x, -y, z+1/2'
'y+1/2, -x+1/2, z+3/4'
'x+1/2, -y+1/2, -z+3/4'
'-x+1/2, y+1/2, -z+1/4'
'y, x, -z'
'-y, -x, -z+1/2'
loop_
_atom_site_label
_atom_site_type_symbol
_atom_site_fract_x
_atom_site_fract_y
_atom_site_fract_z
_atom_site_U_iso_or_equiv
_atom_site_adp_type
_atom_site_occupancy
_atom_site_site_symmetry_order
_atom_site_calc_flag
_atom_site_refinement_flags_posn
_atom_site_refinement_flags_adp
_atom_site_refinement_flags_occupancy
Ni1 Ni 0.56250(17) 0.16592(12) -0.33671(16) 0.1382(17) Uani 1 1 d . . .
Ni2 Ni 0.56729(8) 0.12610(8) -0.22600(9) 0.0782(6) Uani 1 1 d . . .
Ni3 Ni 0.64313(11) 0.18038(8) -0.26936(10) 0.0890(8) Uani 1 1 d . . .
Ni4 Ni 0.62372(9) 0.08920(8) -0.31548(8) 0.0746(6) Uani 1 1 d . . .
Ni5 Ni 0.80718(7) -0.05410(8) -0.04478(10) 0.0733(6) Uani 1 1 d . . .
Ni6 Ni 0.84856(8) 0.03616(9) -0.03173(12) 0.0838(7) Uani 1 1 d . . .
Ni7 Ni 0.77126(8) 0.00842(9) 0.03839(9) 0.0809(7) Uani 1 1 d . . .
Ni8 Ni 0.86121(9) -0.03380(10) 0.05158(12) 0.0904(8) Uani 1 1 d . . .
S1 S 0.87621(17) -0.12379(17) 0.0000 0.0925(15) Uani 1 2 d S T P
S2 S 0.70999(10) 0.06479(10) -0.13937(11) 0.0624(6) Uani 1 1 d D . .
S3 S 0.4678(4) 0.1398(4) -0.2665(3) 0.174(3) Uani 1 1 d . . .
S4 S 0.5067(4) 0.2688(4) -0.2687(4) 0.183(4) Uani 1 1 d . . .
O1 O 0.6316(3) 0.1182(2) -0.2439(3) 0.0621(18) Uani 1 1 d . . .
O2 O 0.5605(4) 0.1063(3) -0.3027(4) 0.087(3) Uani 1 1 d . . .
O3 O 0.6253(5) 0.1527(4) -0.3412(4) 0.097(3) Uani 1 1 d . . .
O4 O 0.5767(4) 0.1838(4) -0.2626(4) 0.096(3) Uani 1 1 d . . .
O5 O 0.6469(7) 0.2420(4) -0.3089(6) 0.130(5) Uani 1 1 d . . .
O6 O 0.6053(4) 0.0697(4) -0.3953(4) 0.096(3) Uani 1 1 d . . .
O7 O 0.4976(6) 0.1400(6) -0.2223(7) 0.141(3) Uani 1 1 d . . .
O8 O 0.4909(6) 0.1714(6) -0.3086(7) 0.141(3) Uani 1 1 d . . .
O9 O 0.4607(6) 0.0984(6) -0.2970(7) 0.141(3) Uani 1 1 d . . .
O10 O 0.4205(10) 0.1564(10) -0.2543(9) 0.220(15) Uani 1 1 d . . .
O11 O 0.5706(8) 0.2296(6) -0.3672(7) 0.165(9) Uani 1 1 d . . .
O12 O 0.5441(10) 0.2668(11) -0.2463(12) 0.224(14) Uani 1 1 d . . .
O13 O 0.5163(9) 0.2850(10) -0.3237(12) 0.198(10) Uani 1 1 d . . .
O14 O 0.4840(14) 0.2239(10) -0.2659(12) 0.255(18) Uani 1 1 d . . .
O15 O 0.4724(10) 0.2989(8) -0.2464(9) 0.188(10) Uani 1 1 d . . .
O16 O 0.7367(5) 0.0277(4) -0.1298(5) 0.093(3) Uani 0.9 1 d . . P
O17 O 0.6746(4) 0.0667(4) -0.0969(4) 0.088(3) Uani 0.9 1 d . . P
O18 O 0.6905(5) 0.0659(5) -0.1901(5) 0.100(4) Uani 0.9 1 d . . P
O19 O 0.7389(4) 0.1027(4) -0.1358(5) 0.096(3) Uani 1 1 d . . .
O20 O 0.7983(3) -0.0512(3) 0.0358(4) 0.079(2) Uani 1 1 d . . .
O21 O 0.7885(2) 0.0100(2) -0.0404(3) 0.0592(16) Uani 1 1 d . . .
O22 O 0.8664(3) -0.0275(3) -0.0287(4) 0.080(2) Uani 1 1 d . . .
O23 O 0.8352(3) 0.0250(3) 0.0473(4) 0.082(3) Uani 1 1 d . . .
O24 O 0.7662(5) 0.0001(7) 0.1222(5) 0.138(7) Uani 1 1 d . . .
O25 O 0.9139(4) 0.0505(5) -0.0119(7) 0.118(5) Uani 1 1 d . . .
O26 O 0.8316(4) -0.1187(4) -0.0230(5) 0.101(3) Uani 1 1 d . . .
O27 O 0.8849(4) -0.0936(4) 0.0414(6) 0.105(4) Uani 1 1 d . . .
O28 O 0.8522(6) -0.0405(5) 0.1325(5) 0.122(5) Uani 1 1 d . . .
O29 O 0.9236(5) -0.0101(6) 0.0667(9) 0.140(6) Uani 1 1 d . . .
O104 O 0.5473(7) 0.1415(6) -0.4084(7) 0.154(7) Uani 1 1 d . . .
N1 N 0.6126(3) 0.0259(3) -0.2897(4) 0.064(2) Uani 1 1 d . . .
N2 N 0.6079(3) -0.0332(3) -0.2439(4) 0.062(2) Uani 1 1 d . . .
N3 N 0.6877(4) -0.0983(3) -0.0997(4) 0.069(2) Uani 1 1 d . . .
N4 N 0.7484(3) -0.0810(4) -0.0605(5) 0.075(3) Uani 1 1 d . . .
N5 N 0.7098(4) -0.0170(4) 0.0290(5) 0.080(3) Uani 1 1 d . . .
N6 N 0.6464(4) -0.0370(4) 0.0029(4) 0.077(3) Uani 1 1 d . . .
N7 N 0.5519(3) 0.0122(4) -0.1394(4) 0.070(2) Uani 1 1 d . . .
N8 N 0.5546(3) 0.0670(3) -0.1946(4) 0.063(2) Uani 1 1 d . . .
N9 N 0.6862(4) 0.0739(4) -0.3328(4) 0.073(3) Uani 1 1 d . . .
N10 N 0.7462(4) 0.0352(4) -0.3392(4) 0.075(3) Uani 1 1 d . . .
N11 N 0.8262(4) -0.0513(4) -0.2115(5) 0.084(3) Uani 1 1 d . . .
N12 N 0.8236(4) -0.0581(4) -0.1244(5) 0.082(3) Uani 1 1 d . . .
N13 N 0.7494(4) 0.0684(5) 0.0487(5) 0.082(3) Uani 1 1 d . . .
N14 N 0.7122(4) 0.1283(5) 0.0414(5) 0.086(4) Uani 1 1 d . . .
N15 N 0.7712(5) 0.1486(4) -0.2972(5) 0.101(5) Uani 1 1 d D . .
N16 N 0.7070(4) 0.1750(4) -0.2852(4) 0.094(4) Uani 1 1 d D . .
N17 N 0.6553(5) 0.2097(4) -0.1975(4) 0.083(3) Uani 1 1 d . . .
N18 N 0.6894(4) 0.2299(3) -0.1254(4) 0.072(3) Uani 1 1 d . . .
N19 N 0.8051(4) 0.1656(4) -0.0243(5) 0.090(4) Uani 1 1 d D . .
N20 N 0.8329(4) 0.1003(4) -0.0226(6) 0.096(4) Uani 1 1 d D . .
N21 N 0.5735(4) 0.1518(3) -0.1502(4) 0.070(2) Uani 1 1 d . . .
N22 N 0.5986(3) 0.1740(3) -0.0755(4) 0.061(2) Uani 1 1 d . . .
N23 N 0.8618(5) 0.0540(5) -0.1979(7) 0.099(5) Uani 1 1 d . . .
N24 N 0.8635(4) 0.0396(4) -0.1099(6) 0.085(3) Uani 1 1 d . . .
C1 C 0.6247(4) 0.0074(4) -0.2452(4) 0.066(3) Uani 1 1 d . . .
H1 H 0.6420 0.0201 -0.2186 0.080 Uiso 1 1 calc R U .
C2 C 0.5870(5) -0.0016(5) -0.3162(5) 0.077(3) Uani 1 1 d . . .
H2 H 0.5730 0.0044 -0.3487 0.093 Uiso 1 1 calc R U .
C3 C 0.5844(4) -0.0398(5) -0.2888(5) 0.073(3) Uani 1 1 d . . .
C4 C 0.6110(4) -0.0628(4) -0.2019(5) 0.066(3) Uani 1 1 d . . .
C5 C 0.6487(4) -0.0662(4) -0.1729(4) 0.061(2) Uani 1 1 d . . .
H5 H 0.6733 -0.0501 -0.1824 0.073 Uiso 1 1 calc R U .
C6 C 0.6497(5) -0.0938(4) -0.1295(5) 0.071(3) Uani 1 1 d . . .
C7 C 0.6156(4) -0.1193(4) -0.1172(6) 0.071(3) Uani 1 1 d . . .
H7 H 0.6178 -0.1391 -0.0889 0.085 Uiso 1 1 calc R U .
C8 C 0.5769(5) -0.1165(4) -0.1462(6) 0.075(3) Uani 1 1 d . . .
C9 C 0.5762(5) -0.0883(4) -0.1888(5) 0.070(3) Uani 1 1 d . . .
H9 H 0.5509 -0.0865 -0.2096 0.084 Uiso 1 1 calc R U .
C10 C 0.5391(10) -0.1427(8) -0.1340(11) 0.133(4) Uani 1 1 d . . .
C11 C 0.6996(6) -0.1337(5) -0.0709(7) 0.089(4) Uani 1 1 d . . .
H11 H 0.6841 -0.1599 -0.0681 0.107 Uiso 1 1 calc R U .
C12 C 0.7375(5) -0.1244(5) -0.0471(7) 0.091(4) Uani 1 1 d . . .
H12 H 0.7539 -0.1432 -0.0255 0.109 Uiso 1 1 calc R U .
C13 C 0.7185(4) -0.0695(4) -0.0915(5) 0.068(3) Uani 1 1 d . . .
H13 H 0.7182 -0.0421 -0.1078 0.081 Uiso 1 1 calc R U .
C14 C 0.6790(5) -0.0084(4) -0.0041(5) 0.072(3) Uani 1 1 d . . .
H14 H 0.6792 0.0143 -0.0291 0.086 Uiso 1 1 calc R U .
C15 C 0.6990(7) -0.0516(8) 0.0583(9) 0.117(7) Uani 1 1 d . . .
H15 H 0.7155 -0.0639 0.0860 0.141 Uiso 1 1 calc R U .
C16 C 0.6575(7) -0.0665(7) 0.0397(9) 0.115(7) Uani 1 1 d . . .
H16 H 0.6420 -0.0912 0.0507 0.138 Uiso 1 1 calc R U .
C17 C 0.6050(4) -0.0363(4) -0.0250(5) 0.070(3) Uani 1 1 d . . .
C18 C 0.5732(5) -0.0601(5) -0.0022(6) 0.081(4) Uani 1 1 d . . .
H18 H 0.5788 -0.0760 0.0291 0.097 Uiso 1 1 calc R U .
C19 C 0.5313(6) -0.0612(5) -0.0255(8) 0.091(4) Uani 1 1 d . . .
C20 C 0.5263(5) -0.0359(5) -0.0728(7) 0.083(4) Uani 1 1 d . . .
H20 H 0.4991 -0.0351 -0.0898 0.100 Uiso 1 1 calc R U .
C21 C 0.5592(5) -0.0132(4) -0.0935(5) 0.073(3) Uani 1 1 d . . .
C22 C 0.5985(4) -0.0126(4) -0.0702(4) 0.059(2) Uani 1 1 d . . .
H22 H 0.6211 0.0040 -0.0848 0.071 Uiso 1 1 calc R U .
C23 C 0.4953(6) -0.0859(6) -0.0026(9) 0.100(5) Uani 1 1 d . . .
H23A H 0.5046 -0.1154 0.0042 0.150 Uiso 1 1 calc R U .
H23B H 0.4712 -0.0861 -0.0274 0.150 Uiso 1 1 calc R U .
H23C H 0.4863 -0.0726 0.0306 0.150 Uiso 1 1 calc R U .
C24 C 0.5724(4) 0.0471(5) -0.1540(5) 0.071(3) Uani 1 1 d . . .
H24 H 0.5976 0.0571 -0.1370 0.085 Uiso 1 1 calc R U .
C25 C 0.5210(5) 0.0404(6) -0.2096(7) 0.090(4) Uani 1 1 d . . .
H25 H 0.5032 0.0443 -0.2396 0.108 Uiso 1 1 calc R U .
C26 C 0.5179(5) 0.0078(5) -0.1744(6) 0.082(4) Uani 1 1 d . . .
H26 H 0.4965 -0.0139 -0.1738 0.099 Uiso 1 1 calc R U .
C27 C 0.7115(4) 0.0464(4) -0.3087(5) 0.067(3) Uani 1 1 d . . .
H27 H 0.7064 0.0355 -0.2743 0.080 Uiso 1 1 calc R U .
C28 C 0.7431(6) 0.0577(6) -0.3846(5) 0.089(5) Uani 1 1 d . . .
H28 H 0.7632 0.0575 -0.4127 0.107 Uiso 1 1 calc R U .
C29 C 0.7059(6) 0.0807(5) -0.3826(5) 0.084(4) Uani 1 1 d . . .
H29 H 0.6950 0.0983 -0.4101 0.100 Uiso 1 1 calc R U .
C30 C 0.7773(4) 0.0044(4) -0.3258(6) 0.073(3) Uani 1 1 d . . .
C31 C 0.7867(4) -0.0065(4) -0.2747(5) 0.067(3) Uani 1 1 d . . .
H31 H 0.7734 0.0089 -0.2467 0.081 Uiso 1 1 calc R U .
C32 C 0.8154(4) -0.0398(4) -0.2625(5) 0.069(3) Uani 1 1 d . . .
C33 C 0.8344(6) -0.0586(7) -0.3072(8) 0.103(6) Uani 1 1 d . . .
H33 H 0.8542 -0.0813 -0.3015 0.124 Uiso 1 1 calc R U .
C34 C 0.8269(5) -0.0473(6) -0.3566(6) 0.088(4) Uani 1 1 d . . .
C35 C 0.7976(5) -0.0171(5) -0.3667(6) 0.085(4) Uani 1 1 d . . .
H35 H 0.7907 -0.0104 -0.4022 0.102 Uiso 1 1 calc R U .
C36 C 0.8490(7) -0.0733(9) -0.4017(10) 0.129(8) Uani 1 1 d . . .
H36A H 0.8595 -0.1006 -0.3877 0.193 Uiso 1 1 calc R U .
H36B H 0.8730 -0.0568 -0.4160 0.193 Uiso 1 1 calc R U .
H36C H 0.8281 -0.0789 -0.4299 0.193 Uiso 1 1 calc R U .
C37 C 0.8057(5) -0.0413(5) -0.1654(6) 0.077(3) Uani 1 1 d . . .
H37 H 0.7808 -0.0238 -0.1638 0.092 Uiso 1 1 calc R U .
C38 C 0.8569(6) -0.0815(6) -0.1446(7) 0.092(4) Uani 1 1 d . . .
H38 H 0.8759 -0.0982 -0.1239 0.110 Uiso 1 1 calc R U .
C39 C 0.8593(6) -0.0778(6) -0.1967(7) 0.093(5) Uani 1 1 d . . .
H39 H 0.8798 -0.0909 -0.2193 0.112 Uiso 1 1 calc R U .
C40 C 0.7347(5) 0.1446(4) -0.2703(5) 0.080(4) Uani 1 1 d D . .
H40 H 0.7292 0.1234 -0.2443 0.096 Uiso 1 1 calc R U .
C41 C 0.7284(7) 0.1992(6) -0.3228(7) 0.147(8) Uani 1 1 d D . .
H41 H 0.7170 0.2236 -0.3403 0.176 Uiso 1 1 calc R U .
C42 C 0.7665(7) 0.1833(7) -0.3306(7) 0.147(8) Uani 1 1 d D . .
H42 H 0.7874 0.1936 -0.3548 0.176 Uiso 1 1 calc R U .
C43 C 0.8063(6) 0.1193(6) -0.2949(5) 0.090(5) Uani 1 1 d . . .
C44 C 0.8173(6) 0.1018(6) -0.2467(9) 0.106(5) Uani 1 1 d . . .
H44 H 0.8024 0.1105 -0.2158 0.128 Uiso 1 1 calc R U .
C45 C 0.8515(6) 0.0699(6) -0.2427(7) 0.093(5) Uani 1 1 d . . .
C46 C 0.8694(6) 0.0607(6) -0.2951(9) 0.106(5) Uani 1 1 d . . .
H46 H 0.8920 0.0402 -0.2971 0.128 Uiso 1 1 calc R U .
C47 C 0.8563(8) 0.0791(9) -0.3411(8) 0.114(8) Uani 1 1 d . . .
C48 C 0.8277(7) 0.1084(8) -0.3396(7) 0.108(7) Uani 1 1 d . . .
H48 H 0.8211 0.1233 -0.3713 0.130 Uiso 1 1 calc R U .
C49 C 0.8809(7) 0.0588(10) -0.3899(8) 0.140(11) Uani 1 1 d . . .
H49A H 0.8611 0.0408 -0.4102 0.210 Uiso 1 1 calc R U .
H49B H 0.9048 0.0413 -0.3771 0.210 Uiso 1 1 calc R U .
H49C H 0.8920 0.0818 -0.4125 0.210 Uiso 1 1 calc R U .
C50 C 0.8414(5) 0.0573(5) -0.1492(7) 0.086(4) Uani 1 1 d . . .
H50 H 0.8144 0.0709 -0.1445 0.104 Uiso 1 1 calc R U .
C51 C 0.9007(7) 0.0297(7) -0.1830(10) 0.114(7) Uani 1 1 d . . .
C52 C 0.8990(6) 0.0200(6) -0.1364(10) 0.105(6) Uani 1 1 d . . .
H52 H 0.9189 0.0015 -0.1196 0.125 Uiso 1 1 calc R U .
C53 C 0.6882(6) 0.2019(5) -0.1678(5) 0.084(4) Uani 1 1 d . . .
H53 H 0.7087 0.1800 -0.1743 0.101 Uiso 1 1 calc R U .
C54 C 0.6558(5) 0.2552(5) -0.1325(6) 0.079(4) Uani 1 1 d . . .
H54 H 0.6485 0.2786 -0.1103 0.095 Uiso 1 1 calc R U .
C55 C 0.6341(6) 0.2435(5) -0.1746(6) 0.084(4) Uani 1 1 d . . .
H55 H 0.6083 0.2562 -0.1870 0.100 Uiso 1 1 calc R U .
C56 C 0.7211(4) 0.2324(4) -0.0880(5) 0.066(3) Uani 1 1 d . . .
C57 C 0.7468(7) 0.1956(7) -0.0741(8) 0.105(2) Uani 1 1 d . . .
H57 H 0.7402 0.1682 -0.0882 0.126 Uiso 1 1 calc R U .
C58 C 0.7877(6) 0.2409(6) -0.0154(8) 0.103(5) Uani 1 1 d . . .
H58 H 0.8091 0.2432 0.0111 0.123 Uiso 1 1 calc R U .
C59 C 0.7795(7) 0.2004(7) -0.0417(8) 0.105(2) Uani 1 1 d . . .
C60 C 0.7634(6) 0.2757(6) -0.0301(7) 0.121(7) Uani 1 1 d D . .
C61 C 0.7312(6) 0.2704(6) -0.0624(7) 0.096(5) Uani 1 1 d . . .
H61 H 0.7132 0.2944 -0.0689 0.115 Uiso 1 1 calc R U .
C63 C 0.8357(5) 0.1638(5) 0.0139(6) 0.105(2) Uani 1 1 d D . .
H63 H 0.8437 0.1869 0.0364 0.126 Uiso 1 1 calc R U .
C64 C 0.8036(5) 0.1258(5) -0.0463(7) 0.105(2) Uani 1 1 d D . .
H64 H 0.7849 0.1173 -0.0739 0.126 Uiso 1 1 calc R U .
C65 C 0.8529(5) 0.1235(5) 0.0148(6) 0.105(2) Uani 1 1 d D . .
H65 H 0.8750 0.1137 0.0376 0.126 Uiso 1 1 calc R U .
C66 C 0.6056(4) 0.1505(4) -0.1181(4) 0.064(3) Uani 1 1 d . . .
H66 H 0.6311 0.1346 -0.1243 0.077 Uiso 1 1 calc R U .
C67 C 0.5438(5) 0.1773(5) -0.1276(6) 0.079(4) Uani 1 1 d . . .
H67 H 0.5166 0.1842 -0.1421 0.094 Uiso 1 1 calc R U .
C68 C 0.5596(4) 0.1918(4) -0.0799(5) 0.070(3) Uani 1 1 d . . .
H68 H 0.5459 0.2104 -0.0555 0.083 Uiso 1 1 calc R U .
C69 C 0.6275(4) 0.1818(4) -0.0324(5) 0.068(3) Uani 1 1 d . . .
C70 C 0.6555(4) 0.1510(4) -0.0173(5) 0.063(3) Uani 1 1 d . . .
H70 H 0.6562 0.1240 -0.0345 0.076 Uiso 1 1 calc R U .
C71 C 0.6834(4) 0.1603(5) 0.0246(5) 0.073(3) Uani 1 1 d . . .
C72 C 0.6831(4) 0.2004(5) 0.0483(5) 0.075(3) Uani 1 1 d . . .
H72 H 0.7029 0.2066 0.0758 0.091 Uiso 1 1 calc R U .
C73 C 0.6543(5) 0.2314(5) 0.0323(6) 0.078(3) Uani 1 1 d . . .
C74 C 0.6260(4) 0.2217(4) -0.0081(5) 0.072(3) Uani 1 1 d . . .
H74 H 0.6056 0.2424 -0.0193 0.086 Uiso 1 1 calc R U .
C75 C 0.7216(6) 0.0929(8) 0.0211(8) 0.112(4) Uani 1 1 d . . .
H75 H 0.7098 0.0839 -0.0116 0.134 Uiso 1 1 calc R U .
C76 C 0.7356(6) 0.1256(8) 0.0902(7) 0.112(4) Uani 1 1 d . . .
H76 H 0.7373 0.1480 0.1155 0.134 Uiso 1 1 calc R U .
C77 C 0.7536(6) 0.0892(8) 0.0949(7) 0.112(4) Uani 1 1 d . . .
H77 H 0.7675 0.0785 0.1256 0.134 Uiso 1 1 calc R U .
C79 C 0.5770(10) 0.2592(8) -0.3979(11) 0.133(4) Uani 1 1 d . . .
C78 C 0.6548(9) 0.2757(8) 0.0588(10) 0.133(4) Uani 1 1 d . . .
H78A H 0.6622 0.2976 0.0325 0.199 Uiso 1 1 calc R U .
H78B H 0.6762 0.2759 0.0871 0.199 Uiso 1 1 calc R U .
H78C H 0.6265 0.2819 0.0735 0.199 Uiso 1 1 calc R U .
C62 C 0.7786(9) 0.3134(7) -0.0061(10) 0.133(4) Uani 1 1 d D . .
H62A H 0.7786 0.3367 -0.0320 0.199 Uiso 1 1 calc R U .
H62B H 0.8078 0.3087 0.0068 0.199 Uiso 1 1 calc R U .
H62C H 0.7599 0.3210 0.0235 0.199 Uiso 1 1 calc R U .
O31 O 0.7247(16) 0.0285(14) -0.1776(17) 0.046(13) Uani 0.1 1 d D U P
O30 O 0.6643(8) 0.0765(12) -0.1562(14) 0.019(7) Uani 0.1 1 d D U P
O32 O 0.713(2) 0.049(2) -0.0842(11) 0.08(2) Uiso 0.1 1 d D . P
loop_
_atom_site_aniso_label
_atom_site_aniso_U_11
_atom_site_aniso_U_22
_atom_site_aniso_U_33
_atom_site_aniso_U_23
_atom_site_aniso_U_13
_atom_site_aniso_U_12
Ni1 0.190(4) 0.105(2) 0.119(2) 0.0051(19) -0.082(3) 0.025(2)
Ni2 0.0900(15) 0.0740(13) 0.0705(12) -0.0064(10) -0.0217(11) 0.0180(11)
Ni3 0.130(2) 0.0706(14) 0.0665(12) 0.0123(10) -0.0162(13) -0.0032(13)
Ni4 0.0976(16) 0.0737(13) 0.0527(10) 0.0020(9) -0.0109(10) -0.0076(11)
Ni5 0.0660(12) 0.0736(13) 0.0804(13) 0.0023(10) -0.0010(10) 0.0127(10)
Ni6 0.0634(12) 0.0866(15) 0.1015(17) -0.0020(13) -0.0111(12) -0.0025(11)
Ni7 0.0732(14) 0.1005(17) 0.0691(12) 0.0007(11) -0.0069(10) 0.0259(12)
Ni8 0.0794(15) 0.0908(17) 0.1009(17) -0.0030(14) -0.0214(13) 0.0236(13)
S1 0.090(2) 0.090(2) 0.097(3) 0.0015(17) -0.0015(17) 0.030(3)
S2 0.0658(15) 0.0632(15) 0.0583(13) 0.0038(11) -0.0022(11) -0.0007(12)
S3 0.207(9) 0.185(8) 0.129(5) -0.002(5) -0.019(6) 0.018(7)
S4 0.204(10) 0.193(10) 0.152(7) 0.015(7) -0.019(7) 0.014(8)
O1 0.081(5) 0.052(4) 0.053(4) 0.001(3) 0.001(3) -0.004(3)
O2 0.111(8) 0.080(6) 0.069(5) -0.016(4) -0.026(5) 0.020(5)
O3 0.142(10) 0.085(7) 0.064(5) 0.017(5) -0.026(6) -0.007(6)
O4 0.122(9) 0.085(7) 0.081(6) 0.008(5) -0.034(6) 0.013(6)
O5 0.191(16) 0.086(8) 0.115(9) 0.032(7) -0.026(10) 0.002(9)
O6 0.116(8) 0.120(9) 0.052(4) 0.004(5) -0.019(5) -0.025(7)
O7 0.139(8) 0.144(8) 0.138(7) -0.003(6) -0.047(6) 0.019(6)
O8 0.139(8) 0.144(8) 0.138(7) -0.003(6) -0.047(6) 0.019(6)
O9 0.139(8) 0.144(8) 0.138(7) -0.003(6) -0.047(6) 0.019(6)
O10 0.26(3) 0.27(3) 0.130(14) -0.068(18) -0.048(17) 0.14(2)
O11 0.27(3) 0.107(10) 0.116(11) 0.021(9) -0.089(14) 0.023(13)
O12 0.20(2) 0.29(4) 0.19(2) -0.07(2) -0.08(2) 0.08(2)
O13 0.17(2) 0.22(3) 0.20(2) -0.01(2) -0.011(19) -0.003(19)
O14 0.41(5) 0.18(2) 0.18(2) 0.08(2) 0.02(3) 0.00(3)
O15 0.25(3) 0.156(18) 0.156(16) 0.016(14) 0.026(18) 0.062(18)
O16 0.112(9) 0.092(8) 0.076(6) 0.009(6) 0.005(6) -0.001(7)
O17 0.091(7) 0.111(9) 0.061(5) 0.012(5) 0.022(5) 0.019(6)
O18 0.103(9) 0.109(9) 0.089(7) -0.004(7) 0.008(7) -0.010(7)
O19 0.094(7) 0.073(6) 0.120(8) 0.000(6) -0.029(6) -0.012(5)
O20 0.074(5) 0.087(6) 0.075(5) 0.001(4) 0.000(4) 0.030(5)
O21 0.050(4) 0.061(4) 0.066(4) 0.002(3) -0.003(3) 0.004(3)
O22 0.049(4) 0.092(6) 0.098(6) 0.013(5) -0.005(4) 0.013(4)
O23 0.071(5) 0.090(6) 0.086(6) -0.001(5) -0.006(5) 0.025(5)
O24 0.116(10) 0.223(19) 0.076(6) 0.018(9) 0.003(7) 0.070(11)
O25 0.080(7) 0.104(9) 0.170(14) -0.014(9) -0.015(8) -0.014(6)
O26 0.087(7) 0.095(7) 0.119(8) -0.006(7) -0.018(6) 0.028(6)
O27 0.102(8) 0.081(7) 0.132(9) -0.018(6) -0.043(7) 0.035(6)
O28 0.142(12) 0.127(11) 0.096(8) 0.010(8) -0.020(8) 0.027(9)
O29 0.084(8) 0.134(12) 0.202(17) 0.011(12) -0.042(10) 0.009(8)
O104 0.209(19) 0.132(12) 0.121(11) -0.012(9) -0.095(12) -0.004(12)
N1 0.063(5) 0.070(6) 0.060(5) -0.001(4) 0.002(4) 0.002(4)
N2 0.060(5) 0.066(5) 0.061(5) -0.005(4) 0.001(4) -0.008(4)
N3 0.074(6) 0.056(5) 0.076(6) -0.003(4) -0.002(5) -0.002(4)
N4 0.057(5) 0.078(7) 0.089(7) 0.020(6) -0.008(5) 0.010(5)
N5 0.076(7) 0.094(8) 0.069(6) 0.019(6) 0.007(5) 0.014(6)
N6 0.082(7) 0.080(7) 0.068(6) 0.014(5) 0.010(5) 0.013(6)
N7 0.059(5) 0.081(7) 0.070(6) -0.011(5) -0.003(4) 0.009(5)
N8 0.059(5) 0.064(5) 0.067(5) -0.009(4) -0.004(4) 0.004(4)
N9 0.084(7) 0.071(6) 0.064(5) -0.006(5) 0.001(5) -0.022(5)
N10 0.080(7) 0.079(7) 0.067(6) -0.009(5) 0.001(5) -0.021(6)
N11 0.070(6) 0.094(8) 0.088(8) -0.025(6) 0.003(6) 0.007(6)
N12 0.064(6) 0.091(8) 0.092(8) -0.003(6) 0.002(6) 0.011(5)
N13 0.067(6) 0.099(8) 0.080(7) -0.007(6) -0.002(5) 0.028(6)
N14 0.076(7) 0.107(9) 0.077(7) -0.029(6) -0.010(6) 0.027(6)
N15 0.132(12) 0.101(10) 0.070(7) 0.003(7) 0.017(7) -0.064(10)
N16 0.125(11) 0.100(9) 0.057(5) 0.008(6) 0.002(6) -0.048(8)
N17 0.122(10) 0.068(6) 0.058(5) 0.008(5) -0.003(6) -0.005(6)
N18 0.087(7) 0.056(5) 0.074(6) 0.001(5) 0.010(5) -0.017(5)
N19 0.081(7) 0.086(8) 0.105(9) -0.023(7) -0.023(7) -0.016(6)
N20 0.085(8) 0.068(7) 0.136(12) -0.003(7) -0.015(8) -0.009(6)
N21 0.076(6) 0.065(6) 0.068(5) -0.004(5) -0.005(5) 0.016(5)
N22 0.056(5) 0.063(5) 0.065(5) 0.003(4) 0.001(4) 0.004(4)
N23 0.084(8) 0.080(8) 0.133(13) -0.018(8) 0.034(8) -0.031(7)
N24 0.066(6) 0.065(6) 0.123(10) -0.004(7) 0.014(7) -0.009(5)
C1 0.074(7) 0.075(7) 0.051(5) -0.004(5) 0.007(5) -0.008(6)
C2 0.088(9) 0.093(9) 0.051(6) -0.010(6) -0.006(6) -0.009(7)
C3 0.075(7) 0.079(8) 0.064(6) -0.011(6) -0.010(6) -0.011(6)
C4 0.068(7) 0.065(6) 0.066(6) -0.017(5) -0.002(5) -0.008(5)
C5 0.067(6) 0.060(6) 0.056(5) -0.003(5) 0.004(5) -0.005(5)
C6 0.086(8) 0.060(6) 0.067(6) -0.016(5) -0.004(6) 0.001(6)
C7 0.062(7) 0.062(6) 0.089(8) -0.008(6) -0.006(6) -0.008(5)
C8 0.086(9) 0.060(7) 0.078(7) -0.021(6) 0.017(6) -0.017(6)
C9 0.084(8) 0.061(6) 0.066(6) -0.016(5) -0.003(6) -0.009(6)
C10 0.153(10) 0.111(8) 0.134(9) -0.028(7) 0.001(8) -0.037(7)
C11 0.105(11) 0.061(7) 0.102(10) 0.005(7) -0.012(9) -0.012(7)
C12 0.090(10) 0.076(9) 0.106(11) 0.034(8) -0.018(8) 0.012(7)
C13 0.068(7) 0.052(6) 0.084(7) 0.005(5) 0.004(6) 0.015(5)
C14 0.080(8) 0.068(7) 0.067(6) 0.016(6) 0.008(6) 0.020(6)
C15 0.092(12) 0.139(17) 0.120(14) 0.066(13) 0.013(10) 0.025(11)
C16 0.109(14) 0.111(13) 0.124(14) 0.048(12) 0.040(12) 0.032(11)
C17 0.080(8) 0.066(7) 0.063(6) -0.001(5) 0.020(6) 0.013(6)
C18 0.085(9) 0.071(8) 0.087(8) 0.002(7) 0.017(7) 0.012(7)
C19 0.088(10) 0.071(8) 0.115(12) -0.016(8) 0.021(9) 0.003(7)
C20 0.066(7) 0.067(7) 0.118(11) -0.019(8) 0.015(7) 0.006(6)
C21 0.080(8) 0.066(7) 0.075(7) -0.011(6) 0.015(6) 0.009(6)
C22 0.056(6) 0.056(6) 0.064(6) -0.009(5) 0.008(5) -0.003(4)
C23 0.081(10) 0.085(10) 0.135(14) 0.006(10) 0.031(10) -0.007(7)
C24 0.073(7) 0.084(8) 0.055(6) -0.011(5) -0.004(5) -0.008(6)
C25 0.085(9) 0.103(11) 0.082(9) -0.020(8) -0.016(7) 0.000(8)
C26 0.074(8) 0.092(10) 0.080(8) -0.029(8) -0.011(6) -0.010(7)
C27 0.070(7) 0.070(7) 0.060(6) -0.010(5) 0.003(5) -0.008(5)
C28 0.117(12) 0.097(10) 0.053(6) -0.009(6) 0.024(7) -0.047(10)
C29 0.114(12) 0.086(9) 0.051(6) -0.010(6) 0.008(7) -0.023(8)
C30 0.061(7) 0.075(8) 0.083(8) -0.018(6) 0.019(6) -0.028(6)
C31 0.065(6) 0.071(7) 0.065(6) -0.008(5) 0.009(5) -0.019(5)
C32 0.061(6) 0.072(7) 0.073(7) -0.018(6) 0.008(5) -0.015(5)
C33 0.074(9) 0.122(14) 0.113(13) -0.035(11) 0.022(9) -0.002(9)
C34 0.077(9) 0.110(12) 0.076(8) -0.015(8) 0.018(7) -0.003(8)
C35 0.082(9) 0.101(11) 0.073(7) -0.018(7) 0.025(7) -0.038(8)
C36 0.102(14) 0.16(2) 0.126(16) -0.033(15) 0.042(12) 0.009(13)
C37 0.066(7) 0.078(8) 0.087(8) 0.011(7) 0.006(6) -0.004(6)
C38 0.090(10) 0.094(11) 0.091(10) -0.004(8) 0.005(8) 0.014(8)
C39 0.090(10) 0.091(10) 0.099(10) -0.009(8) 0.009(8) 0.037(8)
C40 0.115(11) 0.068(7) 0.057(6) 0.009(6) 0.001(7) -0.028(8)
C41 0.20(2) 0.128(15) 0.115(10) 0.052(11) 0.019(14) -0.040(15)
C42 0.20(2) 0.128(15) 0.115(10) 0.052(11) 0.019(14) -0.040(15)
C43 0.102(11) 0.100(11) 0.068(7) -0.010(7) 0.013(7) -0.068(10)
C44 0.084(7) 0.100(8) 0.135(11) -0.031(8) 0.034(7) -0.050(6)
C45 0.090(10) 0.108(12) 0.082(9) -0.013(8) 0.035(8) -0.050(9)
C46 0.084(7) 0.100(8) 0.135(11) -0.031(8) 0.034(7) -0.050(6)
C47 0.103(14) 0.149(19) 0.092(11) -0.033(12) 0.029(11) -0.076(14)
C48 0.093(12) 0.158(19) 0.075(9) -0.013(10) 0.026(9) -0.078(14)
C49 0.109(14) 0.21(3) 0.099(12) -0.072(15) 0.048(11) -0.075(16)
C50 0.063(7) 0.080(9) 0.115(11) -0.010(8) 0.008(8) -0.012(6)
C51 0.103(14) 0.094(12) 0.145(18) 0.014(12) 0.049(13) -0.004(10)
C52 0.073(10) 0.093(11) 0.147(17) -0.016(11) 0.020(10) -0.021(8)
C53 0.122(12) 0.070(8) 0.060(7) -0.002(6) 0.016(8) -0.004(7)
C54 0.088(9) 0.063(7) 0.087(9) 0.011(6) 0.010(7) 0.000(6)
C55 0.107(11) 0.063(7) 0.080(8) 0.013(6) -0.004(8) 0.002(7)
C56 0.080(8) 0.058(6) 0.062(6) -0.009(5) 0.020(6) -0.013(5)
C57 0.108(6) 0.100(5) 0.108(6) -0.014(5) -0.011(4) -0.003(4)
C58 0.083(10) 0.096(11) 0.130(14) -0.035(10) -0.017(10) 0.005(8)
C59 0.108(6) 0.100(5) 0.108(6) -0.014(5) -0.011(4) -0.003(4)
C60 0.098(13) 0.113(15) 0.152(18) -0.051(14) -0.010(13) 0.001(11)
C61 0.097(11) 0.077(9) 0.114(12) -0.026(9) -0.002(10) -0.003(8)
C63 0.108(6) 0.100(5) 0.108(6) -0.014(5) -0.011(4) -0.003(4)
C64 0.108(6) 0.100(5) 0.108(6) -0.014(5) -0.011(4) -0.003(4)
C65 0.108(6) 0.100(5) 0.108(6) -0.014(5) -0.011(4) -0.003(4)
C66 0.074(7) 0.062(6) 0.056(5) 0.002(5) -0.004(5) 0.012(5)
C67 0.075(8) 0.073(8) 0.089(8) -0.015(7) -0.018(7) 0.020(6)
C68 0.068(7) 0.066(7) 0.075(7) -0.006(6) -0.004(6) 0.017(5)
C69 0.054(6) 0.080(8) 0.070(6) -0.009(6) 0.004(5) -0.008(5)
C70 0.060(6) 0.069(7) 0.061(6) -0.005(5) 0.010(5) -0.003(5)
C71 0.055(6) 0.092(9) 0.071(7) 0.003(6) 0.007(5) -0.004(6)
C72 0.065(7) 0.095(9) 0.067(6) -0.014(6) 0.023(6) -0.012(6)
C73 0.073(8) 0.075(8) 0.084(8) -0.010(7) 0.008(7) -0.016(6)
C74 0.066(7) 0.072(7) 0.077(7) -0.008(6) 0.010(6) -0.003(5)
C75 0.097(7) 0.147(10) 0.091(6) -0.022(6) -0.037(5) 0.040(6)
C76 0.097(7) 0.147(10) 0.091(6) -0.022(6) -0.037(5) 0.040(6)
C77 0.097(7) 0.147(10) 0.091(6) -0.022(6) -0.037(5) 0.040(6)
C79 0.153(10) 0.111(8) 0.134(9) -0.028(7) 0.001(8) -0.037(7)
C78 0.153(10) 0.111(8) 0.134(9) -0.028(7) 0.001(8) -0.037(7)
C62 0.153(10) 0.111(8) 0.134(9) -0.028(7) 0.001(8) -0.037(7)
O31 0.048(14) 0.044(14) 0.046(14) 0.001(7) 0.001(7) 0.003(7)
O30 0.020(9) 0.017(9) 0.021(9) 0.006(6) 0.002(6) -0.001(6)
loop_
_atom_type_symbol
_atom_type_description
_atom_type_scat_dispersion_real
_atom_type_scat_dispersion_imag
_atom_type_scat_source
C C 0.0181 0.0091 'International Tables Vol C Tables 4.2.6.8 and 6.1.1.4'
H H 0.0000 0.0000 'International Tables Vol C Tables 4.2.6.8 and 6.1.1.4'
N N 0.0311 0.0180 'International Tables Vol C Tables 4.2.6.8 and 6.1.1.4'
O O 0.0492 0.0322 'International Tables Vol C Tables 4.2.6.8 and 6.1.1.4'
Ni Ni -3.0029 0.5091 'International Tables Vol C Tables 4.2.6.8 and 6.1.1.4'
S S 0.3331 0.5567 'International Tables Vol C Tables 4.2.6.8 and 6.1.1.4'
loop_
_geom_angle_atom_site_label_1
_geom_angle_atom_site_label_2
_geom_angle_atom_site_label_3
_geom_angle
_geom_angle_site_symmetry_1
_geom_angle_site_symmetry_3
O3 Ni1 O4 83.9(5) . .
O3 Ni1 O104 95.7(7) . .
O4 Ni1 O104 174.0(7) . .
O3 Ni1 O2 82.3(5) . .
O4 Ni1 O2 82.3(4) . .
O104 Ni1 O2 91.7(6) . .
O3 Ni1 O11 93.1(8) . .
O4 Ni1 O11 93.0(6) . .
O104 Ni1 O11 93.0(7) . .
O2 Ni1 O11 173.8(6) . .
O3 Ni1 O8 163.8(5) . .
O4 Ni1 O8 84.6(6) . .
O104 Ni1 O8 94.4(8) . .
O2 Ni1 O8 84.8(6) . .
O11 Ni1 O8 98.9(8) . .
N8 Ni2 O4 175.2(4) . .
N8 Ni2 O2 94.4(4) . .
O4 Ni2 O2 81.4(5) . .
N8 Ni2 O1 99.5(4) . .
O4 Ni2 O1 82.3(4) . .
O2 Ni2 O1 81.7(4) . .
N8 Ni2 N21 90.4(4) . .
O4 Ni2 N21 93.8(5) . .
O2 Ni2 N21 175.0(4) . .
O1 Ni2 N21 99.0(4) . .
N8 Ni2 O7 88.3(6) . .
O4 Ni2 O7 89.3(6) . .
O2 Ni2 O7 89.9(6) . .
O1 Ni2 O7 168.9(5) . .
N21 Ni2 O7 88.7(6) . .
N16 Ni3 N17 91.7(5) . .
N16 Ni3 O1 98.8(5) . .
N17 Ni3 O1 99.9(4) . .
N16 Ni3 O4 173.1(5) . .
N17 Ni3 O4 95.0(5) . .
O1 Ni3 O4 81.4(4) . .
N16 Ni3 O3 93.1(5) . .
N17 Ni3 O3 175.0(6) . .
O1 Ni3 O3 80.7(4) . .
O4 Ni3 O3 80.1(5) . .
N16 Ni3 O5 85.9(7) . .
N17 Ni3 O5 90.3(5) . .
O1 Ni3 O5 168.6(5) . .
O4 Ni3 O5 92.6(6) . .
O3 Ni3 O5 88.7(5) . .
O1 Ni4 N9 100.2(4) . .
O1 Ni4 O2 82.0(4) . .
N9 Ni4 O2 176.4(4) . .
O1 Ni4 O3 81.6(4) . .
N9 Ni4 O3 97.5(5) . .
O2 Ni4 O3 80.0(5) . .
O1 Ni4 N1 99.1(3) . .
N9 Ni4 N1 90.3(4) . .
O2 Ni4 N1 92.1(4) . .
O3 Ni4 N1 172.0(5) . .
O1 Ni4 O6 167.4(5) . .
N9 Ni4 O6 89.3(5) . .
O2 Ni4 O6 88.1(4) . .
O3 Ni4 O6 89.0(4) . .
N1 Ni4 O6 89.0(4) . .
N4 Ni5 O20 95.2(5) . .
N4 Ni5 O22 179.6(5) . .
O20 Ni5 O22 84.6(4) . .
N4 Ni5 N12 90.4(5) . .
O20 Ni5 N12 173.4(4) . .
O22 Ni5 N12 89.8(5) . .
N4 Ni5 O21 98.7(4) . .
O20 Ni5 O21 82.4(3) . .
O22 Ni5 O21 81.6(4) . .
N12 Ni5 O21 100.2(4) . .
N4 Ni5 O26 89.1(5) . .
O20 Ni5 O26 80.8(4) . .
O22 Ni5 O26 90.5(4) . .
N12 Ni5 O26 95.8(5) . .
O21 Ni5 O26 162.1(4) . .
N24 Ni6 O21 97.3(4) . .
N24 Ni6 O22 91.5(5) . .
O21 Ni6 O22 82.4(3) . .
N24 Ni6 O23 173.2(5) . .
O21 Ni6 O23 81.6(4) . .
O22 Ni6 O23 81.7(4) . .
N24 Ni6 N20 96.4(6) . .
O21 Ni6 N20 100.4(4) . .
O22 Ni6 N20 171.2(5) . .
O23 Ni6 N20 90.4(5) . .
N24 Ni6 O25 89.9(6) . .
O21 Ni6 O25 166.7(5) . .
O22 Ni6 O25 86.3(5) . .
O23 Ni6 O25 90.0(6) . .
N20 Ni6 O25 89.8(5) . .
N13 Ni7 O20 172.9(5) . .
N13 Ni7 O21 101.0(4) . .
O20 Ni7 O21 83.3(3) . .
N13 Ni7 O23 94.6(5) . .
O20 Ni7 O23 80.4(4) . .
O21 Ni7 O23 81.3(4) . .
N13 Ni7 N5 93.3(5) . .
O20 Ni7 N5 91.7(5) . .
O21 Ni7 N5 97.9(4) . .
O23 Ni7 N5 172.1(5) . .
N13 Ni7 O24 87.7(6) . .
O20 Ni7 O24 87.3(6) . .
O21 Ni7 O24 167.9(4) . .
O23 Ni7 O24 89.7(6) . .
N5 Ni7 O24 89.9(6) . .
O23 Ni8 O27 169.3(5) . .
O23 Ni8 O22 83.7(4) . .
O27 Ni8 O22 86.2(5) . .
O23 Ni8 O20 81.2(4) . .
O27 Ni8 O20 94.5(5) . .
O22 Ni8 O20 84.7(4) . .
O23 Ni8 O28 95.2(5) . .
O27 Ni8 O28 94.8(6) . .
O22 Ni8 O28 176.7(6) . .
O20 Ni8 O28 92.0(6) . .
O23 Ni8 O29 93.6(6) . .
O27 Ni8 O29 90.5(6) . .
O22 Ni8 O29 94.2(7) . .
O20 Ni8 O29 174.8(5) . .
O28 Ni8 O29 88.9(8) . .
O27 S1 O27 106.5(14) 7_645 .
O27 S1 O26 107.5(7) 7_645 .
O27 S1 O26 112.7(7) . .
O27 S1 O26 112.7(7) 7_645 7_645
O27 S1 O26 107.5(7) . 7_645
O26 S1 O26 109.8(11) . 7_645
O18 S2 O16 114.7(8) . .
O18 S2 O32 152(3) . .
O16 S2 O32 63(2) . .
O18 S2 O19 107.2(8) . .
O16 S2 O19 106.0(8) . .
O32 S2 O19 100(3) . .
O18 S2 O30 49.0(15) . .
O16 S2 O30 140.7(15) . .
O32 S2 O30 113(2) . .
O19 S2 O30 113.0(15) . .
O18 S2 O17 108.8(8) . .
O16 S2 O17 109.0(7) . .
O32 S2 O17 53(2) . .
O19 S2 O17 111.1(8) . .
O30 S2 O17 61.3(14) . .
O18 S2 O31 65.3(18) . .
O16 S2 O31 49.7(18) . .
O32 S2 O31 109(2) . .
O19 S2 O31 116(2) . .
O30 S2 O31 105.9(18) . .
O17 S2 O31 132(2) . .
O7 S3 O9 119.2(12) . .
O7 S3 O10 116.2(13) . .
O9 S3 O10 103.9(15) . .
O7 S3 O8 102.6(13) . .
O9 S3 O8 104.2(12) . .
O10 S3 O8 110.0(16) . .
O12 S4 O13 104(2) . .
O12 S4 O15 119.7(19) . .
O13 S4 O15 105.9(16) . .
O12 S4 O14 110(2) . .
O13 S4 O14 115.4(18) . .
O15 S4 O14 102(2) . .
Ni4 O1 Ni2 97.5(4) . .
Ni4 O1 Ni3 99.1(3) . .
Ni2 O1 Ni3 97.1(4) . .
Ni1 O2 Ni2 97.0(4) . .
Ni1 O2 Ni4 98.0(6) . .
Ni2 O2 Ni4 97.4(4) . .
Ni1 O3 Ni4 98.8(6) . .
Ni1 O3 Ni3 97.2(6) . .
Ni4 O3 Ni3 97.3(4) . .
Ni1 O4 Ni2 98.4(5) . .
Ni1 O4 Ni3 97.4(6) . .
Ni2 O4 Ni3 97.7(5) . .
S3 O7 Ni2 126.4(13) . .
S3 O8 Ni1 125.4(10) . .
C79 O11 Ni1 161.2(18) . .
O31 O16 S2 69.9(15) . .
O31 O16 O32 125(2) . .
S2 O16 O32 59.6(15) . .
O32 O17 S2 61.3(16) . .
O32 O17 O30 119.3(18) . .
S2 O17 O30 59.0(10) . .
O30 O18 S2 70.2(14) . .
O30 O18 O31 120(2) . .
S2 O18 O31 61.5(14) . .
Ni7 O20 Ni5 97.3(4) . .
Ni7 O20 Ni8 98.4(5) . .
Ni5 O20 Ni8 94.4(4) . .
Ni6 O21 Ni7 98.2(3) . .
Ni6 O21 Ni5 97.5(3) . .
Ni7 O21 Ni5 95.8(3) . .
Ni8 O22 Ni6 96.2(5) . .
Ni8 O22 Ni5 95.0(4) . .
Ni6 O22 Ni5 98.0(3) . .
Ni8 O23 Ni7 99.6(5) . .
Ni8 O23 Ni6 97.2(4) . .
Ni7 O23 Ni6 97.5(4) . .
S1 O26 Ni5 120.3(8) . .
S1 O27 Ni8 129.0(7) . .
C1 N1 C2 108.3(11) . .
C1 N1 Ni4 128.9(9) . .
C2 N1 Ni4 122.5(9) . .
C1 N2 C3 108.8(11) . .
C1 N2 C4 126.6(10) . .
C3 N2 C4 124.4(10) . .
C13 N3 C11 105.5(12) . .
C13 N3 C6 128.4(11) . .
C11 N3 C6 126.0(12) . .
C13 N4 C12 104.0(12) . .
C13 N4 Ni5 131.1(10) . .
C12 N4 Ni5 123.3(9) . .
C14 N5 C15 109.5(15) . .
C14 N5 Ni7 132.2(10) . .
C15 N5 Ni7 118.0(12) . .
C16 N6 C14 110.1(15) . .
C16 N6 C17 124.5(15) . .
C14 N6 C17 125.5(11) . .
C24 N7 C26 105.8(12) . .
C24 N7 C21 127.7(11) . .
C26 N7 C21 126.1(13) . .
C24 N8 C25 104.4(12) . .
C24 N8 Ni2 130.0(9) . .
C25 N8 Ni2 125.3(10) . .
C27 N9 C29 104.4(13) . .
C27 N9 Ni4 128.4(9) . .
C29 N9 Ni4 124.5(11) . .
C28 N10 C27 106.9(14) . .
C28 N10 C30 127.6(13) . .
C27 N10 C30 125.5(12) . .
C37 N11 C39 104.9(13) . .
C37 N11 C32 128.6(12) . .
C39 N11 C32 126.4(13) . .
C37 N12 C38 104.1(14) . .
C37 N12 Ni5 130.5(10) . .
C38 N12 Ni5 125.4(11) . .
C77 N13 C75 103.9(14) . .
C77 N13 Ni7 121.9(12) . .
C75 N13 Ni7 132.7(12) . .
C75 N14 C71 130.4(13) . .
C75 N14 C76 100.6(14) . .
C71 N14 C76 128.7(13) . .
C40 N15 C42 107.2(13) . .
C40 N15 C43 125.1(12) . .
C42 N15 C43 127.4(13) . .
C40 N16 C41 105.6(12) . .
C40 N16 Ni3 129.3(9) . .
C41 N16 Ni3 124.1(12) . .
C53 N17 C55 106.3(12) . .
C53 N17 Ni3 125.0(11) . .
C55 N17 Ni3 128.4(11) . .
C54 N18 C56 129.1(12) . .
C54 N18 C53 104.4(14) . .
C56 N18 C53 126.2(13) . .
C64 N19 C63 106.1(11) . .
C64 N19 C59 123.5(13) . .
C63 N19 C59 130.3(13) . .
C65 N20 C64 108.1(11) . .
C65 N20 Ni6 119.3(10) . .
C64 N20 Ni6 132.6(10) . .
C66 N21 C67 106.4(11) . .
C66 N21 Ni2 129.8(9) . .
C67 N21 Ni2 123.6(9) . .
C66 N22 C68 108.1(10) . .
C66 N22 C69 127.7(10) . .
C68 N22 C69 124.1(10) . .
C45 N23 C50 129.9(17) . .
C45 N23 C51 129.2(16) . .
C50 N23 C51 100.8(17) . .
C50 N24 C52 103.1(16) . .
C50 N24 Ni6 129.0(11) . .
C52 N24 Ni6 127.6(14) . .
N1 C1 N2 108.5(11) . .
N1 C2 C3 109.5(11) . .
N2 C3 C2 104.9(11) . .
C5 C4 C9 119.5(12) . .
C5 C4 N2 120.4(11) . .
C9 C4 N2 120.1(12) . .
C4 C5 C6 118.8(12) . .
C7 C6 C5 121.4(13) . .
C7 C6 N3 118.4(12) . .
C5 C6 N3 120.0(12) . .
C6 C7 C8 120.7(13) . .
C9 C8 C7 117.1(12) . .
C9 C8 C10 120.0(17) . .
C7 C8 C10 122.9(17) . .
C8 C9 C4 122.3(13) . .
C12 C11 N3 107.3(13) . .
C11 C12 N4 107.5(12) . .
N4 C13 N3 115.7(12) . .
N5 C14 N6 109.3(11) . .
N5 C15 C16 107.4(15) . .
N6 C16 C15 103.5(17) . .
C18 C17 C22 122.4(14) . .
C18 C17 N6 115.2(12) . .
C22 C17 N6 122.4(12) . .
C17 C18 C19 120.0(15) . .
C18 C19 C20 115.4(15) . .
C18 C19 C23 122.8(18) . .
C20 C19 C23 121.8(17) . .
C21 C20 C19 121.6(15) . .
C20 C21 C22 121.5(14) . .
C20 C21 N7 118.9(14) . .
C22 C21 N7 119.5(12) . .
C21 C22 C17 119.1(12) . .
N7 C24 N8 113.8(12) . .
C26 C25 N8 108.8(13) . .
C25 C26 N7 107.0(13) . .
N9 C27 N10 112.1(12) . .
N10 C28 C29 107.7(12) . .
C28 C29 N9 108.8(14) . .
C31 C30 C35 119.2(15) . .
C31 C30 N10 122.9(12) . .
C35 C30 N10 117.8(15) . .
C30 C31 C32 121.7(12) . .
N11 C32 C33 122.8(15) . .
N11 C32 C31 123.5(11) . .
C33 C32 C31 113.6(15) . .
C34 C33 C32 125.3(19) . .
C33 C34 C35 119.4(15) . .
C33 C34 C36 118.5(19) . .
C35 C34 C36 121.7(18) . .
C34 C35 C30 120.7(16) . .
N12 C37 N11 113.0(13) . .
C39 C38 N12 111.7(16) . .
C38 C39 N11 106.2(14) . .
N15 C40 N16 110.0(10) . .
C42 C41 N16 109.5(14) . .
C41 C42 N15 107.6(13) . .
C48 C43 C44 121(2) . .
C48 C43 N15 120.1(18) . .
C44 C43 N15 118.7(15) . .
C43 C44 C45 120.7(18) . .
N23 C45 C44 120.5(16) . .
N23 C45 C46 129(2) . .
C44 C45 C46 110.4(19) . .
C47 C46 C45 125(2) . .
C48 C47 C46 119.1(19) . .
C48 C47 C49 130(2) . .
C46 C47 C49 111(3) . .
C47 C48 C43 123(2) . .
N24 C50 N23 113.2(15) . .
C52 C51 N23 109.8(18) . .
C51 C52 N24 112(2) . .
N17 C53 N18 110.7(14) . .
C55 C54 N18 110.6(14) . .
C54 C55 N17 107.9(15) . .
N18 C56 C61 122.3(14) . .
N18 C56 C57 121.7(12) . .
C61 C56 C57 116.0(15) . .
C59 C57 C56 119.6(18) . .
C60 C58 C59 117.7(17) . .
C57 C59 N19 122.9(18) . .
C57 C59 C58 121(2) . .
N19 C59 C58 115.1(16) . .
C61 C60 C58 119.6(17) . .
C61 C60 C62 129(2) . .
C58 C60 C62 111(2) . .
C60 C61 C56 125.0(18) . .
N19 C63 C65 108.9(12) . .
N20 C64 N19 109.4(11) . .
N20 C65 C63 107.5(12) . .
N21 C66 N22 111.7(11) . .
N21 C67 C68 108.7(12) . .
N22 C68 C67 105.1(11) . .
C70 C69 C74 122.1(12) . .
C70 C69 N22 119.9(11) . .
C74 C69 N22 118.0(12) . .
C69 C70 C71 118.0(12) . .
C72 C71 C70 120.5(13) . .
C72 C71 N14 120.7(13) . .
C70 C71 N14 118.7(13) . .
C73 C72 C71 120.5(14) . .
C72 C73 C74 118.7(13) . .
C72 C73 C78 119.6(16) . .
C74 C73 C78 121.7(17) . .
C73 C74 C69 120.2(14) . .
N14 C75 N13 115.9(15) . .
C77 C76 N14 110.9(17) . .
C76 C77 N13 107.8(16) . .
O16 O31 S2 60.4(13) . .
O16 O31 O18 113.3(17) . .
S2 O31 O18 53.2(10) . .
O18 O30 S2 60.8(12) . .
O18 O30 O17 118.6(17) . .
S2 O30 O17 59.6(10) . .
O17 O32 S2 65.9(14) . .
O17 O32 O16 115(2) . .
S2 O32 O16 57.3(14) . .
loop_
_geom_bond_atom_site_label_1
_geom_bond_atom_site_label_2
_geom_bond_distance
_geom_bond_site_symmetry_2
Ni1 O3 2.007(15) .
Ni1 O4 2.009(11) .
Ni1 O104 2.026(14) .
Ni1 O2 2.050(12) .
Ni1 O11 2.145(18) .
Ni1 O8 2.35(2) .
Ni2 N8 2.047(11) .
Ni2 O4 2.048(12) .
Ni2 O2 2.050(9) .
Ni2 O1 2.072(9) .
Ni2 N21 2.090(11) .
Ni2 O7 2.219(19) .
Ni3 N16 2.041(14) .
Ni3 N17 2.072(12) .
Ni3 O1 2.077(8) .
Ni3 O4 2.081(14) .
Ni3 O3 2.091(10) .
Ni3 O5 2.171(13) .
Ni4 O1 2.042(8) .
Ni4 N9 2.055(13) .
Ni4 O2 2.068(12) .
Ni4 O3 2.087(11) .
Ni4 N1 2.108(11) .
Ni4 O6 2.190(9) .
Ni5 N4 2.058(12) .
Ni5 O20 2.062(10) .
Ni5 O22 2.066(10) .
Ni5 N12 2.086(13) .
Ni5 O21 2.087(8) .
Ni5 O26 2.225(12) .
Ni6 N24 2.038(15) .
Ni6 O21 2.057(8) .
Ni6 O22 2.063(10) .
Ni6 O23 2.075(11) .
Ni6 N20 2.074(12) .
Ni6 O25 2.146(13) .
Ni7 N13 2.009(13) .
Ni7 O20 2.045(9) .
Ni7 O21 2.068(8) .
Ni7 O23 2.074(11) .
Ni7 N5 2.088(14) .
Ni7 O24 2.146(13) .
Ni8 O23 2.008(10) .
Ni8 O27 2.023(11) .
Ni8 O22 2.050(11) .
Ni8 O20 2.074(11) .
Ni8 O28 2.080(14) .
Ni8 O29 2.117(15) .
S1 O27 1.436(13) 7_645
S1 O27 1.436(13) .
S1 O26 1.517(12) .
S1 O26 1.517(12) 7_645
S2 O18 1.423(15) .
S2 O16 1.446(14) .
S2 O32 1.48(2) .
S2 O19 1.491(11) .
S2 O30 1.53(2) .
S2 O17 1.543(10) .
S2 O31 1.56(2) .
S3 O7 1.456(18) .
S3 O9 1.52(2) .
S3 O10 1.59(3) .
S3 O8 1.62(2) .
S4 O12 1.30(3) .
S4 O13 1.51(3) .
S4 O15 1.53(2) .
S4 O14 1.57(3) .
O11 C79 1.23(3) .
O16 O31 1.27(5) .
O16 O32 1.53(5) .
O17 O32 1.35(5) .
O17 O30 1.57(3) .
O18 O30 1.23(4) .
O18 O31 1.61(4) .
N1 C1 1.322(16) .
N1 C2 1.352(17) .
N2 C1 1.372(17) .
N2 C3 1.372(16) .
N2 C4 1.411(17) .
N3 C13 1.332(17) .
N3 C11 1.376(19) .
N3 C6 1.414(18) .
N4 C13 1.270(17) .
N4 C12 1.44(2) .
N5 C14 1.305(18) .
N5 C15 1.35(2) .
N6 C16 1.36(2) .
N6 C14 1.37(2) .
N6 C17 1.471(19) .
N7 C24 1.315(18) .
N7 C26 1.390(17) .
N7 C21 1.426(18) .
N8 C24 1.323(17) .
N8 C25 1.389(19) .
N9 C27 1.318(19) .
N9 C29 1.420(18) .
N10 C28 1.35(2) .
N10 C27 1.375(18) .
N10 C30 1.41(2) .
N11 C37 1.37(2) .
N11 C39 1.38(2) .
N11 C32 1.38(2) .
N12 C37 1.29(2) .
N12 C38 1.37(2) .
N13 C77 1.34(2) .
N13 C75 1.35(2) .
N14 C75 1.25(2) .
N14 C71 1.408(19) .
N14 C76 1.44(2) .
N15 C40 1.332(16) .
N15 C42 1.382(18) .
N15 C43 1.43(3) .
N16 C40 1.338(17) .
N16 C41 1.386(17) .
N17 C53 1.30(2) .
N17 C55 1.38(2) .
N18 C54 1.33(2) .
N18 C56 1.371(19) .
N18 C53 1.386(18) .
N19 C64 1.361(17) .
N19 C63 1.362(17) .
N19 C59 1.42(2) .
N20 C65 1.345(17) .
N20 C64 1.353(17) .
N21 C66 1.292(16) .
N21 C67 1.350(17) .
N22 C66 1.324(16) .
N22 C68 1.341(16) .
N22 C69 1.436(16) .
N23 C45 1.28(3) .
N23 C50 1.39(2) .
N23 C51 1.48(3) .
N24 C50 1.33(2) .
N24 C52 1.43(2) .
C2 C3 1.38(2) .
C4 C5 1.390(18) .
C4 C9 1.388(19) .
C5 C6 1.397(18) .
C6 C7 1.36(2) .
C7 C8 1.41(2) .
C8 C9 1.39(2) .
C8 C10 1.47(3) .
C11 C12 1.36(2) .
C15 C16 1.45(3) .
C17 C18 1.37(2) .
C17 C22 1.379(18) .
C18 C19 1.43(2) .
C19 C20 1.45(3) .
C19 C23 1.48(2) .
C20 C21 1.35(2) .
C21 C22 1.361(19) .
C25 C26 1.35(3) .
C28 C29 1.37(3) .
C30 C31 1.37(2) .
C30 C35 1.39(2) .
C31 C32 1.41(2) .
C32 C33 1.41(2) .
C33 C34 1.32(3) .
C34 C35 1.34(3) .
C34 C36 1.56(2) .
C38 C39 1.33(2) .
C41 C42 1.31(2) .
C43 C48 1.36(2) .
C43 C44 1.38(3) .
C44 C45 1.46(3) .
C45 C46 1.47(2) .
C46 C47 1.36(3) .
C47 C48 1.28(4) .
C47 C49 1.59(3) .
C51 C52 1.22(3) .
C54 C55 1.32(2) .
C56 C61 1.39(2) .
C56 C57 1.44(3) .
C57 C59 1.32(3) .
C58 C60 1.38(3) .
C58 C59 1.45(3) .
C60 C61 1.31(3) .
C60 C62 1.41(2) .
C63 C65 1.368(18) .
C67 C68 1.38(2) .
C69 C70 1.355(19) .
C69 C74 1.389(19) .
C70 C71 1.403(18) .
C71 C72 1.39(2) .
C72 C73 1.38(2) .
C73 C74 1.39(2) .
C73 C78 1.54(3) .
C76 C77 1.28(3) .
loop_
_platon_squeeze_void_nr
_platon_squeeze_void_average_x
_platon_squeeze_void_average_y
_platon_squeeze_void_average_z
_platon_squeeze_void_volume
_platon_squeeze_void_count_electrons
_platon_squeeze_void_content
1 -0.034 0.046 0.171 8556 1851 ' '
