#------------------------------------------------------------------------------
#$Date: 2015-12-20 04:18:32 +0200 (Sun, 20 Dec 2015) $
#$Revision: 171653 $
#$URL: svn://www.crystallography.net/cod/cif/1/52/01/1520121.cif $
#------------------------------------------------------------------------------
#
# This file is available in the Crystallography Open Database (COD),
# http://www.crystallography.net/
#
# All data on this site have been placed in the public domain by the
# contributors.
#
data_1520121
loop_
_publ_author_name
'Sinha, A. S.'
'Rao Khandavilli, U. B.'
'O'Connor, E. L.'
'Deadman, B. J.'
'Maguire, A. R.'
'Lawrence, S. E.'
_publ_section_title
;
 Novel co-crystals of the nutraceutical sinapic acid
;
_journal_issue                   26
_journal_name_full               CrystEngComm
_journal_page_first              4832
_journal_paper_doi               10.1039/C5CE00777A
_journal_volume                  17
_journal_year                    2015
_chemical_formula_moiety         'C11 H12 O5, C7 H10 N2 O S, 2(C2 H3 N)'
_chemical_formula_sum            'C22 H28 N4 O6 S'
_chemical_formula_weight         476.54
_chemical_name_common
;
 Sinapic Acid + 6-Propyl-2-thiouracil . 2 Acetonitrile
;
_space_group_crystal_system      triclinic
_space_group_IT_number           2
_space_group_name_Hall           '-P 1'
_space_group_name_H-M_alt        'P -1'
_symmetry_space_group_name_Hall  '-P 1'
_symmetry_space_group_name_H-M   'P -1'
_atom_sites_solution_hydrogens   geom
_atom_sites_solution_primary     direct
_atom_sites_solution_secondary   difmap
_audit_update_record
;
2015-04-21 deposited with the CCDC.
2015-05-29 downloaded from the CCDC.
;
_cell_angle_alpha                98.274(2)
_cell_angle_beta                 94.315(2)
_cell_angle_gamma                105.620(2)
_cell_formula_units_Z            2
_cell_length_a                   8.2922(8)
_cell_length_b                   10.5857(10)
_cell_length_c                   14.7818(15)
_cell_measurement_reflns_used    6347
_cell_measurement_temperature    100.(2)
_cell_measurement_theta_max      26.3268
_cell_measurement_theta_min      2.6554
_cell_volume                     1227.7(2)
_computing_cell_refinement       'SAINT V7.68A (Bruker AXS, 2009)'
_computing_data_collection       'Bruker Instrument Service v2011.12.3.0'
_computing_data_reduction        'SAINT V7.68A (Bruker AXS, 2009)'
_computing_molecular_graphics    'Mercury 3.0 (Macrae et al., 2008)'
_computing_structure_refinement  'SHELXL-97 (Sheldrick, 2008)'
_computing_structure_solution    'SHELXS-97 (Sheldrick, 2008)'
_diffrn_ambient_temperature      100.(2)
_diffrn_detector_area_resol_mean 8.3333
_diffrn_measured_fraction_theta_full 0.981
_diffrn_measured_fraction_theta_max 0.981
_diffrn_measurement_device_type  'Bruker APEXII DUO'
_diffrn_measurement_method       '\f & \w scans'
_diffrn_radiation_monochromator  Graphite
_diffrn_radiation_source         'Fine-focus sealed tube'
_diffrn_radiation_type           MoK\a
_diffrn_radiation_wavelength     0.71073
_diffrn_reflns_av_R_equivalents  0.0260
_diffrn_reflns_av_sigmaI/netI    0.0270
_diffrn_reflns_limit_h_max       9
_diffrn_reflns_limit_h_min       -10
_diffrn_reflns_limit_k_max       13
_diffrn_reflns_limit_k_min       -13
_diffrn_reflns_limit_l_max       18
_diffrn_reflns_limit_l_min       -18
_diffrn_reflns_number            16145
_diffrn_reflns_theta_full        26.34
_diffrn_reflns_theta_max         26.34
_diffrn_reflns_theta_min         1.40
_exptl_absorpt_coefficient_mu    0.175
_exptl_absorpt_correction_T_max  0.98
_exptl_absorpt_correction_T_min  0.86
_exptl_absorpt_correction_type   multi-scan
_exptl_absorpt_process_details   'SADABS V2008/1 (Bruker AXS)'
_exptl_crystal_colour            'Clear colourless'
_exptl_crystal_density_diffrn    1.289
_exptl_crystal_density_method    'not measured'
_exptl_crystal_description       Plate
_exptl_crystal_F_000             504
_exptl_crystal_size_max          0.550
_exptl_crystal_size_mid          0.390
_exptl_crystal_size_min          0.100
_refine_diff_density_max         0.589
_refine_diff_density_min         -0.374
_refine_ls_extinction_method     none
_refine_ls_goodness_of_fit_ref   1.070
_refine_ls_hydrogen_treatment    mixed
_refine_ls_matrix_type           full
_refine_ls_number_parameters     319
_refine_ls_number_reflns         4920
_refine_ls_number_restraints     10
_refine_ls_restrained_S_all      1.103
_refine_ls_R_factor_all          0.0474
_refine_ls_R_factor_gt           0.0393
_refine_ls_shift/su_max          0.001
_refine_ls_shift/su_mean         0.000
_refine_ls_structure_factor_coef Fsqd
_refine_ls_weighting_details
'calc w=1/[\s^2^(Fo^2^)+(0.0539P)^2^+0.6056P] where P=(Fo^2^+2Fc^2^)/3'
_refine_ls_weighting_scheme      calc
_refine_ls_wR_factor_gt          0.1031
_refine_ls_wR_factor_ref         0.1089
_reflns_number_gt                4229
_reflns_number_total             4920
_reflns_threshold_expression     >2sigma(I)
_cod_data_source_file            c5ce00777a2.cif
_cod_data_source_block           SA.PTU.2MeCN_Low_Temp
_cod_depositor_comments
'Adding full bibliography for 1520118--1520122.cif.'
_cod_database_code               1520121
#BEGIN Tags that were not found in dictionaries:
_iucr_refine_instruction_details
;
TITL mo_SEL_AS_EOC_SA_3D_1_0m in P-1
CELL 0.71073   8.2922  10.5857  14.7818  98.274  94.315 105.620
ZERR    2.00   0.0008   0.0010   0.0015   0.002   0.002   0.002
LATT 1
SFAC C  H  N  O  S
UNIT 44  56  8  12  2
L.S. 6
ACTA
BOND $H
FMAP 2
PLAN 20
SIZE 0.104 0.391 0.551
EQIV $1_[ x+1, y, z+1 ]
EQIV $2_[ -x+2, -y+2, -z+2 ]
EQIV $3_[ x-1, y, z-1 ]
EQIV $4_[ x+1, y, z ]
HTAB N18 O11_$1
HTAB N22 S23_$2
HTAB O10 O24_$3
HTAB O14 N33_$4
DFIX 0.84 0.005 O10 H10 O14 H14
DFIX 0.88 0.005 N22 H22 N18 H18
ISOR 0.005 C28
CONF
TEMP -173.140
WGHT    0.053900    0.605600
FVAR       0.21435
MOLE 2
C1    1    0.575505    0.270938    0.190457    11.00000    0.01355    0.01495 =
         0.01992    0.00385    0.00277    0.00395
C2    1    0.638796    0.336705    0.280726    11.00000    0.01662    0.01387 =
         0.02106    0.00161    0.00343    0.00507
AFIX  43
H2    2    0.627978    0.423004    0.301139    11.00000   -1.20000
AFIX   0
C3    1    0.717255    0.274923    0.339966    11.00000    0.01738    0.01646 =
         0.01710    0.00135    0.00201    0.00323
C4    1    0.735176    0.147567    0.310763    11.00000    0.01528    0.01644 =
         0.01896    0.00526    0.00206    0.00433
C5    1    0.674861    0.083767    0.220203    11.00000    0.01631    0.01236 =
         0.02226    0.00190    0.00296    0.00375
C6    1    0.594633    0.144484    0.160863    11.00000    0.01532    0.01512 =
         0.01921    0.00097   -0.00004    0.00293
AFIX  43
H6    2    0.552388    0.099937    0.099727    11.00000   -1.20000
AFIX   0
C7    1    0.484427    0.327742    0.126460    11.00000    0.01543    0.01728 =
         0.01906    0.00311    0.00247    0.00336
AFIX  43
H7    2    0.445479    0.275788    0.066969    11.00000   -1.20000
AFIX   0
C8    1    0.449497    0.444614    0.141978    11.00000    0.01699    0.01754 =
         0.01995    0.00231    0.00031    0.00423
AFIX  43
H8    2    0.492779    0.501282    0.199479    11.00000   -1.20000
AFIX   0
C9    1    0.348129    0.489835    0.075073    11.00000    0.01434    0.01574 =
         0.02208    0.00422    0.00463    0.00405
O10   4    0.289913    0.404192   -0.003296    11.00000    0.02422    0.01703 =
         0.02087    0.00185   -0.00238    0.00989
H10   2    0.230301    0.434118   -0.038553    11.00000    0.03772
O11   4    0.316835    0.597368    0.090797    11.00000    0.02596    0.01566 =
         0.02474    0.00272   -0.00070    0.00958
O12   4    0.702305   -0.038395    0.197501    11.00000    0.03055    0.01420 =
         0.02276   -0.00103   -0.00430    0.01045
C13   1    0.634538   -0.111876    0.107297    11.00000    0.02948    0.01559 =
         0.02370   -0.00305   -0.00414    0.00834
AFIX 137
H13A  2    0.512033   -0.127042    0.099150    11.00000   -1.50000
H13B  2    0.660072   -0.197686    0.100038    11.00000   -1.50000
H13C  2    0.685148   -0.061168    0.060992    11.00000   -1.50000
AFIX   0
O14   4    0.809464    0.083155    0.367084    11.00000    0.02651    0.01925 =
         0.01875    0.00413   -0.00180    0.00888
H14   2    0.844183    0.125382    0.420655    11.00000    0.04462
O15   4    0.782370    0.326926    0.429616    11.00000    0.03396    0.01954 =
         0.01703   -0.00271   -0.00320    0.01175
C16   1    0.767167    0.455542    0.465849    11.00000    0.04069    0.02192 =
         0.02338   -0.00449   -0.00180    0.01308
AFIX 137
H16A  2    0.827689    0.521213    0.430700    11.00000   -1.50000
H16B  2    0.815617    0.480433    0.530635    11.00000   -1.50000
H16C  2    0.647787    0.453032    0.461018    11.00000   -1.50000
AFIX   0
MOLE 1
C17   1    1.078775    0.798947    0.981891    11.00000    0.01529    0.01375 =
         0.02012    0.00340    0.00431    0.00475
N18   3    1.110544    0.678760    0.966006    11.00000    0.01762    0.01457 =
         0.01776    0.00333    0.00130    0.00681
H18   2    1.169390    0.660033    1.011733    11.00000    0.02492
C19   1    1.063518    0.588686    0.883631    11.00000    0.01460    0.01335 =
         0.02123    0.00226    0.00374    0.00346
C20   1    0.975717    0.629841    0.811250    11.00000    0.01572    0.01511 =
         0.01896    0.00017    0.00247    0.00360
AFIX  43
H20   2    0.938338    0.572294    0.753601    11.00000   -1.20000
AFIX   0
C21   1    0.945726    0.750359    0.824583    11.00000    0.01272    0.01484 =
         0.01696    0.00212    0.00275    0.00171
N22   3    0.996240    0.831009    0.910091    11.00000    0.01886    0.01299 =
         0.01689    0.00141    0.00092    0.00676
H22   2    0.968499    0.905902    0.918731    11.00000    0.02468
S23   5    1.141818    0.901528    1.083732    11.00000    0.02988    0.01685 =
         0.01744   -0.00065   -0.00249    0.01182
O24   4    1.099266    0.481591    0.877871    11.00000    0.02407    0.01378 =
         0.02323    0.00099   -0.00014    0.00845
C25   1    0.862650    0.810817    0.755186    11.00000    0.01819    0.01453 =
         0.01882    0.00291    0.00182    0.00566
AFIX  23
H25A  2    0.944008    0.894661    0.746794    11.00000   -1.20000
H25B  2    0.765640    0.834297    0.780921    11.00000   -1.20000
AFIX   0
C26   1    0.799973    0.724133    0.660881    11.00000    0.02157    0.01863 =
         0.01945    0.00146    0.00012    0.00390
AFIX  23
H26A  2    0.714407    0.641450    0.667543    11.00000   -1.20000
H26B  2    0.895217    0.699016    0.634173    11.00000   -1.20000
AFIX   0
C27   1    0.722774    0.798186    0.596365    11.00000    0.02528    0.02868 =
         0.02250    0.00547   -0.00050    0.00597
AFIX 137
H27A  2    0.629642    0.824253    0.623295    11.00000   -1.50000
H27B  2    0.680165    0.739953    0.536772    11.00000   -1.50000
H27C  2    0.808923    0.877923    0.587585    11.00000   -1.50000
AFIX   0
MOLE 2
C28   1    0.403195    0.837372    0.329140    11.00000    0.06259    0.06276 =
         0.14395    0.05360    0.05161    0.03121
AFIX 137
H28A  2    0.503311    0.914176    0.336097    11.00000   -1.50000
H28B  2    0.325429    0.856758    0.372297    11.00000   -1.50000
H28C  2    0.347022    0.819198    0.265973    11.00000   -1.50000
AFIX   0
C29   1    0.453297    0.721806    0.348475    11.00000    0.04399    0.03296 =
         0.04539    0.00881    0.01497    0.00726
N30   3    0.491414    0.630873    0.361002    11.00000    0.07444    0.03320 =
         0.03385   -0.00285    0.00003    0.01726
C31   1    0.112043    0.232026    0.717170    11.00000    0.04141    0.02948 =
         0.02687    0.00300   -0.00208    0.01489
AFIX 137
H31A  2    0.192860    0.320847    0.727518    11.00000   -1.50000
H31B  2    0.171898    0.165838    0.726394    11.00000   -1.50000
H31C  2    0.028255    0.229808    0.760712    11.00000   -1.50000
AFIX   0
C32   1    0.027619    0.201725    0.623499    11.00000    0.02817    0.02163 =
         0.02642    0.00737    0.00594    0.01076
N33   3   -0.040232    0.177546    0.550637    11.00000    0.03824    0.03770 =
         0.02561    0.00605    0.00063    0.01395
HKLF 4 1 1 0 0 0 1 0 0 0 1
 
REM  mo_SEL_AS_EOC_SA_3D_1_0m in P-1
REM R1 =  0.0393 for   4229 Fo > 4sig(Fo)  and  0.0474 for all   4920 data
REM    319 parameters refined using     10 restraints
 
END  
     
WGHT      0.0535      0.6081 
REM Highest difference peak  0.589,  deepest hole -0.374,  1-sigma level  0.049
Q1    1   0.4489  0.8699  0.3980  11.00000  0.05    0.59
Q2    1   0.8977  0.7761  0.7896  11.00000  0.05    0.30
Q3    1   1.0359  0.6151  0.8419  11.00000  0.05    0.29
Q4    1   0.3790  0.8244  0.3060  11.00000  0.05    0.29
Q5    1   0.5346  0.3001  0.1615  11.00000  0.05    0.29
Q6    1   0.5930  0.2921  0.2407  11.00000  0.05    0.29
Q7    1   0.6702  0.3034  0.3090  11.00000  0.05    0.28
Q8    1   1.2139  0.8588  1.1156  11.00000  0.05    0.27
Q9    1   1.1411  0.8715  1.0219  11.00000  0.05    0.26
Q10   1   0.3884  0.4593  0.1123  11.00000  0.05    0.24
Q11   1   0.9579  0.7770  0.8631  11.00000  0.05    0.24
Q12   1   0.8215  0.7674  0.7088  11.00000  0.05    0.24
Q13   1   0.7155  0.1190  0.2617  11.00000  0.05    0.24
Q14   1   0.6089  0.0970  0.1979  11.00000  0.05    0.23
Q15   1   0.7339  0.2117  0.3216  11.00000  0.05    0.23
Q16   1   0.7782  0.1234  0.3377  11.00000  0.05    0.23
Q17   1   0.9434  0.6784  0.8202  11.00000  0.05    0.23
Q18   1   1.0847  0.9566  1.0614  11.00000  0.05    0.22
Q19   1   0.6647  0.1261  0.1881  11.00000  0.05    0.21
Q20   1   0.7656  0.7593  0.6256  11.00000  0.05    0.21
;
#END Tags that were not found in dictionaries
loop_
_space_group_symop_operation_xyz
'x, y, z'
'-x, -y, -z'
loop_
_atom_site_type_symbol
_atom_site_label
_atom_site_fract_x
_atom_site_fract_y
_atom_site_fract_z
_atom_site_U_iso_or_equiv
_atom_site_adp_type
_atom_site_calc_flag
_atom_site_refinement_flags
_atom_site_occupancy
C C1 0.5755(2) 0.27094(16) 0.19046(11) 0.0160(3) Uani d . 1
C C2 0.6388(2) 0.33671(16) 0.28073(11) 0.0171(3) Uani d . 1
H H2 0.628 0.423 0.3011 0.021 Uiso calc R 1
C C3 0.7173(2) 0.27492(16) 0.33997(11) 0.0175(3) Uani d . 1
C C4 0.7352(2) 0.14757(16) 0.31076(11) 0.0167(3) Uani d . 1
C C5 0.6749(2) 0.08377(15) 0.22020(11) 0.0171(3) Uani d . 1
C C6 0.5946(2) 0.14448(15) 0.16086(11) 0.0171(3) Uani d . 1
H H6 0.5524 0.0999 0.0997 0.021 Uiso calc R 1
C C7 0.4844(2) 0.32774(16) 0.12646(11) 0.0175(3) Uani d . 1
H H7 0.4455 0.2758 0.067 0.021 Uiso calc R 1
C C8 0.4495(2) 0.44461(16) 0.14198(11) 0.0185(3) Uani d . 1
H H8 0.4928 0.5013 0.1995 0.022 Uiso calc R 1
C C9 0.3481(2) 0.48983(16) 0.07507(11) 0.0172(3) Uani d . 1
O O10 0.28991(15) 0.40419(11) -0.00330(8) 0.0203(3) Uani d D 1
H H10 0.230(2) 0.434(2) -0.0386(13) 0.038(6) Uiso d D 1
O O11 0.31683(15) 0.59737(11) 0.09080(8) 0.0217(3) Uani d . 1
O O12 0.70231(16) -0.03840(11) 0.19750(8) 0.0225(3) Uani d . 1
C C13 0.6345(2) -0.11188(16) 0.10730(12) 0.0236(4) Uani d . 1
H H13A 0.512 -0.127 0.0992 0.035 Uiso calc R 1
H H13B 0.6601 -0.1977 0.1 0.035 Uiso calc R 1
H H13C 0.6851 -0.0612 0.061 0.035 Uiso calc R 1
O O14 0.80946(15) 0.08316(12) 0.36708(8) 0.0212(3) Uani d D 1
H H14 0.844(3) 0.125(2) 0.4207(7) 0.045(7) Uiso d D 1
O O15 0.78237(16) 0.32693(12) 0.42962(8) 0.0236(3) Uani d . 1
C C16 0.7672(3) 0.45554(18) 0.46585(13) 0.0290(4) Uani d . 1
H H16A 0.8277 0.5212 0.4307 0.043 Uiso calc R 1
H H16B 0.8156 0.4804 0.5306 0.043 Uiso calc R 1
H H16C 0.6478 0.453 0.461 0.043 Uiso calc R 1
C C17 1.0788(2) 0.79895(15) 0.98189(11) 0.0161(3) Uani d . 1
N N18 1.11054(17) 0.67876(13) 0.96601(9) 0.0162(3) Uani d D 1
H H18 1.169(2) 0.660(2) 1.0117(10) 0.025(5) Uiso d D 1
C C19 1.0635(2) 0.58869(15) 0.88363(11) 0.0165(3) Uani d . 1
C C20 0.9757(2) 0.62984(16) 0.81125(11) 0.0170(3) Uani d . 1
H H20 0.9383 0.5723 0.7536 0.02 Uiso calc R 1
C C21 0.94573(19) 0.75036(15) 0.82458(11) 0.0153(3) Uani d . 1
N N22 0.99624(17) 0.83101(13) 0.91009(9) 0.0160(3) Uani d D 1
H H22 0.968(2) 0.9059(11) 0.9187(14) 0.025(5) Uiso d D 1
S S23 1.14182(6) 0.90153(4) 1.08373(3) 0.02102(12) Uani d . 1
O O24 1.09927(15) 0.48159(11) 0.87787(8) 0.0201(3) Uani d . 1
C C25 0.8626(2) 0.81082(16) 0.75519(11) 0.0170(3) Uani d . 1
H H25A 0.944 0.8947 0.7468 0.02 Uiso calc R 1
H H25B 0.7656 0.8343 0.7809 0.02 Uiso calc R 1
C C26 0.8000(2) 0.72413(16) 0.66088(11) 0.0205(4) Uani d . 1
H H26A 0.7144 0.6414 0.6675 0.025 Uiso calc R 1
H H26B 0.8952 0.699 0.6342 0.025 Uiso calc R 1
C C27 0.7228(2) 0.79819(19) 0.59637(12) 0.0259(4) Uani d . 1
H H27A 0.6296 0.8243 0.6233 0.039 Uiso calc R 1
H H27B 0.6802 0.74 0.5368 0.039 Uiso calc R 1
H H27C 0.8089 0.8779 0.5876 0.039 Uiso calc R 1
C C28 0.4032(4) 0.8374(3) 0.3291(3) 0.0813(11) Uani d U 1
H H28A 0.5033 0.9142 0.3361 0.122 Uiso calc R 1
H H28B 0.3254 0.8568 0.3723 0.122 Uiso calc R 1
H H28C 0.347 0.8192 0.266 0.122 Uiso calc R 1
C C29 0.4533(3) 0.7218(2) 0.34848(16) 0.0408(5) Uani d . 1
N N30 0.4914(3) 0.63087(19) 0.36100(13) 0.0480(5) Uani d . 1
C C31 0.1120(3) 0.2320(2) 0.71717(13) 0.0321(4) Uani d . 1
H H31A 0.1929 0.3208 0.7275 0.048 Uiso calc R 1
H H31B 0.1719 0.1658 0.7264 0.048 Uiso calc R 1
H H31C 0.0283 0.2298 0.7607 0.048 Uiso calc R 1
C C32 0.0276(2) 0.20172(17) 0.62350(13) 0.0242(4) Uani d . 1
N N33 -0.0402(2) 0.17755(17) 0.55064(11) 0.0333(4) Uani d . 1
loop_
_atom_site_aniso_label
_atom_site_aniso_U_11
_atom_site_aniso_U_22
_atom_site_aniso_U_33
_atom_site_aniso_U_12
_atom_site_aniso_U_13
_atom_site_aniso_U_23
C1 0.0135(7) 0.0149(7) 0.0199(8) 0.0039(6) 0.0028(6) 0.0039(6)
C2 0.0166(8) 0.0139(7) 0.0211(8) 0.0051(6) 0.0034(6) 0.0016(6)
C3 0.0174(8) 0.0165(8) 0.0171(8) 0.0032(6) 0.0020(6) 0.0013(6)
C4 0.0153(8) 0.0164(8) 0.0190(8) 0.0043(6) 0.0021(6) 0.0053(6)
C5 0.0163(8) 0.0124(7) 0.0223(8) 0.0037(6) 0.0030(6) 0.0019(6)
C6 0.0153(8) 0.0151(8) 0.0192(8) 0.0029(6) 0.0000(6) 0.0010(6)
C7 0.0154(8) 0.0173(8) 0.0191(8) 0.0034(6) 0.0025(6) 0.0031(6)
C8 0.0170(8) 0.0175(8) 0.0200(8) 0.0042(6) 0.0003(6) 0.0023(6)
C9 0.0143(8) 0.0157(7) 0.0221(8) 0.0040(6) 0.0046(6) 0.0042(6)
O10 0.0242(6) 0.0170(6) 0.0209(6) 0.0099(5) -0.0024(5) 0.0018(5)
O11 0.0260(6) 0.0157(6) 0.0247(6) 0.0096(5) -0.0007(5) 0.0027(5)
O12 0.0306(7) 0.0142(6) 0.0228(6) 0.0105(5) -0.0043(5) -0.0010(5)
C13 0.0295(9) 0.0156(8) 0.0237(9) 0.0083(7) -0.0041(7) -0.0031(7)
O14 0.0265(6) 0.0193(6) 0.0188(6) 0.0089(5) -0.0018(5) 0.0041(5)
O15 0.0340(7) 0.0195(6) 0.0170(6) 0.0117(5) -0.0032(5) -0.0027(5)
C16 0.0407(11) 0.0219(9) 0.0234(9) 0.0131(8) -0.0018(8) -0.0045(7)
C17 0.0153(8) 0.0138(7) 0.0201(8) 0.0047(6) 0.0043(6) 0.0034(6)
N18 0.0176(7) 0.0146(6) 0.0178(7) 0.0068(5) 0.0013(5) 0.0033(5)
C19 0.0146(8) 0.0134(7) 0.0212(8) 0.0035(6) 0.0037(6) 0.0023(6)
C20 0.0157(8) 0.0151(7) 0.0190(8) 0.0036(6) 0.0025(6) 0.0002(6)
C21 0.0127(7) 0.0148(7) 0.0170(8) 0.0017(6) 0.0028(6) 0.0021(6)
N22 0.0189(7) 0.0130(6) 0.0169(7) 0.0068(5) 0.0009(5) 0.0014(5)
S23 0.0299(2) 0.0169(2) 0.0174(2) 0.01182(17) -0.00249(17) -0.00065(15)
O24 0.0241(6) 0.0138(5) 0.0232(6) 0.0085(5) -0.0001(5) 0.0010(5)
C25 0.0182(8) 0.0145(7) 0.0188(8) 0.0057(6) 0.0018(6) 0.0029(6)
C26 0.0216(8) 0.0186(8) 0.0194(8) 0.0039(7) 0.0001(7) 0.0015(7)
C27 0.0253(9) 0.0287(9) 0.0225(9) 0.0060(8) -0.0005(7) 0.0055(7)
C28 0.0626(18) 0.0628(18) 0.144(3) 0.0312(15) 0.0516(19) 0.0536(19)
C29 0.0440(13) 0.0330(11) 0.0454(13) 0.0073(10) 0.0150(10) 0.0088(10)
N30 0.0744(15) 0.0332(10) 0.0338(10) 0.0173(10) 0.0000(10) -0.0028(8)
C31 0.0414(11) 0.0295(10) 0.0269(10) 0.0149(9) -0.0021(8) 0.0030(8)
C32 0.0282(9) 0.0216(8) 0.0264(10) 0.0108(7) 0.0059(8) 0.0074(7)
N33 0.0382(10) 0.0377(9) 0.0256(9) 0.0140(8) 0.0006(7) 0.0061(7)
loop_
_atom_type_symbol
_atom_type_description
_atom_type_scat_dispersion_real
_atom_type_scat_dispersion_imag
_atom_type_scat_source
C C 0.0033 0.0016 'International Tables Vol C Tables 4.2.6.8 and 6.1.1.4'
H H 0.0000 0.0000 'International Tables Vol C Tables 4.2.6.8 and 6.1.1.4'
N N 0.0061 0.0033 'International Tables Vol C Tables 4.2.6.8 and 6.1.1.4'
O O 0.0106 0.0060 'International Tables Vol C Tables 4.2.6.8 and 6.1.1.4'
S S 0.1246 0.1234 'International Tables Vol C Tables 4.2.6.8 and 6.1.1.4'
loop_
_geom_angle_atom_site_label_1
_geom_angle_atom_site_label_2
_geom_angle_atom_site_label_3
_geom_angle
C6 C1 C2 119.56(15)
C6 C1 C7 118.22(15)
C2 C1 C7 122.19(14)
C3 C2 C1 119.62(14)
C3 C2 H2 120.2
C1 C2 H2 120.2
O15 C3 C2 125.59(14)
O15 C3 C4 113.46(14)
C2 C3 C4 120.95(15)
O14 C4 C5 118.21(14)
O14 C4 C3 122.67(15)
C5 C4 C3 119.12(14)
O12 C5 C6 125.01(14)
O12 C5 C4 114.80(14)
C6 C5 C4 120.19(14)
C5 C6 C1 120.54(15)
C5 C6 H6 119.7
C1 C6 H6 119.7
C8 C7 C1 127.41(16)
C8 C7 H7 116.3
C1 C7 H7 116.3
C7 C8 C9 123.47(15)
C7 C8 H8 118.3
C9 C8 H8 118.3
O11 C9 O10 122.75(15)
O11 C9 C8 122.49(15)
O10 C9 C8 114.75(14)
C9 O10 H10 110.8(16)
C5 O12 C13 117.27(13)
O12 C13 H13A 109.5
O12 C13 H13B 109.5
H13A C13 H13B 109.5
O12 C13 H13C 109.5
H13A C13 H13C 109.5
H13B C13 H13C 109.5
C4 O14 H14 114.9(17)
C3 O15 C16 117.37(13)
O15 C16 H16A 109.5
O15 C16 H16B 109.5
H16A C16 H16B 109.5
O15 C16 H16C 109.5
H16A C16 H16C 109.5
H16B C16 H16C 109.5
N22 C17 N18 115.64(14)
N22 C17 S23 122.55(12)
N18 C17 S23 121.80(12)
C17 N18 C19 125.27(14)
C17 N18 H18 115.5(14)
C19 N18 H18 119.2(14)
O24 C19 N18 119.14(15)
O24 C19 C20 125.27(15)
N18 C19 C20 115.59(14)
C21 C20 C19 120.34(15)
C21 C20 H20 119.8
C19 C20 H20 119.8
C20 C21 N22 118.96(14)
C20 C21 C25 127.07(14)
N22 C21 C25 113.96(13)
C17 N22 C21 124.16(14)
C17 N22 H22 118.2(13)
C21 N22 H22 117.6(13)
C21 C25 C26 115.93(13)
C21 C25 H25A 108.3
C26 C25 H25A 108.3
C21 C25 H25B 108.3
C26 C25 H25B 108.3
H25A C25 H25B 107.4
C25 C26 C27 110.69(14)
C25 C26 H26A 109.5
C27 C26 H26A 109.5
C25 C26 H26B 109.5
C27 C26 H26B 109.5
H26A C26 H26B 108.1
C26 C27 H27A 109.5
C26 C27 H27B 109.5
H27A C27 H27B 109.5
C26 C27 H27C 109.5
H27A C27 H27C 109.5
H27B C27 H27C 109.5
C29 C28 H28A 109.5
C29 C28 H28B 109.5
H28A C28 H28B 109.5
C29 C28 H28C 109.5
H28A C28 H28C 109.5
H28B C28 H28C 109.5
N30 C29 C28 178.1(3)
C32 C31 H31A 109.5
C32 C31 H31B 109.5
H31A C31 H31B 109.5
C32 C31 H31C 109.5
H31A C31 H31C 109.5
H31B C31 H31C 109.5
N33 C32 C31 179.2(2)
loop_
_geom_bond_atom_site_label_1
_geom_bond_atom_site_label_2
_geom_bond_distance
C1 C6 1.402(2)
C1 C2 1.404(2)
C1 C7 1.459(2)
C2 C3 1.388(2)
C2 H2 0.95
C3 O15 1.369(2)
C3 C4 1.406(2)
C4 O14 1.3601(19)
C4 C5 1.398(2)
C5 O12 1.3718(19)
C5 C6 1.389(2)
C6 H6 0.95
C7 C8 1.337(2)
C7 H7 0.95
C8 C9 1.463(2)
C8 H8 0.95
C9 O11 1.2285(19)
C9 O10 1.332(2)
O10 H10 0.842(5)
O12 C13 1.433(2)
C13 H13A 0.98
C13 H13B 0.98
C13 H13C 0.98
O14 H14 0.839(5)
O15 C16 1.431(2)
C16 H16A 0.98
C16 H16B 0.98
C16 H16C 0.98
C17 N22 1.353(2)
C17 N18 1.359(2)
C17 S23 1.6805(16)
N18 C19 1.392(2)
N18 H18 0.881(5)
C19 O24 1.2399(19)
C19 C20 1.433(2)
C20 C21 1.354(2)
C20 H20 0.95
C21 N22 1.385(2)
C21 C25 1.502(2)
N22 H22 0.878(5)
C25 C26 1.524(2)
C25 H25A 0.99
C25 H25B 0.99
C26 C27 1.526(2)
C26 H26A 0.99
C26 H26B 0.99
C27 H27A 0.98
C27 H27B 0.98
C27 H27C 0.98
C28 C29 1.452(4)
C28 H28A 0.98
C28 H28B 0.98
C28 H28C 0.98
C29 N30 1.126(3)
C31 C32 1.454(3)
C31 H31A 0.98
C31 H31B 0.98
C31 H31C 0.98
C32 N33 1.138(2)
loop_
_geom_hbond_atom_site_label_D
_geom_hbond_atom_site_label_H
_geom_hbond_atom_site_label_A
_geom_hbond_site_symmetry_A
_geom_hbond_distance_DH
_geom_hbond_distance_HA
_geom_hbond_distance_DA
_geom_hbond_angle_DHA
N18 H18 O11 1_656 0.881(5) 1.935(7) 2.8013(18) 167.(2)
N22 H22 S23 2_777 0.878(5) 2.452(6) 3.3199(14) 169.6(18)
O10 H10 O24 1_454 0.842(5) 1.797(6) 2.6363(16) 174.(2)
O14 H14 N33 1_655 0.839(5) 2.012(10) 2.820(2) 161.(2)
loop_
_geom_torsion_atom_site_label_1
_geom_torsion_atom_site_label_2
_geom_torsion_atom_site_label_3
_geom_torsion_atom_site_label_4
_geom_torsion
C6 C1 C2 C3 -1.0(2)
C7 C1 C2 C3 176.87(15)
C1 C2 C3 O15 -179.14(15)
C1 C2 C3 C4 0.4(2)
O15 C3 C4 O14 0.4(2)
C2 C3 C4 O14 -179.20(15)
O15 C3 C4 C5 -179.53(14)
C2 C3 C4 C5 0.9(2)
O14 C4 C5 O12 -1.6(2)
C3 C4 C5 O12 178.28(14)
O14 C4 C5 C6 178.52(15)
C3 C4 C5 C6 -1.6(2)
O12 C5 C6 C1 -178.86(15)
C4 C5 C6 C1 1.0(2)
C2 C1 C6 C5 0.3(2)
C7 C1 C6 C5 -177.62(15)
C6 C1 C7 C8 178.34(16)
C2 C1 C7 C8 0.5(3)
C1 C7 C8 C9 -176.16(15)
C7 C8 C9 O11 179.68(16)
C7 C8 C9 O10 0.9(2)
C6 C5 O12 C13 -3.7(2)
C4 C5 O12 C13 176.44(14)
C2 C3 O15 C16 0.6(2)
C4 C3 O15 C16 -178.95(15)
N22 C17 N18 C19 -0.8(2)
S23 C17 N18 C19 -179.62(12)
C17 N18 C19 O24 -179.64(15)
C17 N18 C19 C20 0.4(2)
O24 C19 C20 C21 -178.86(16)
N18 C19 C20 C21 1.1(2)
C19 C20 C21 N22 -2.1(2)
C19 C20 C21 C25 177.18(15)
N18 C17 N22 C21 -0.4(2)
S23 C17 N22 C21 178.50(12)
C20 C21 N22 C17 1.8(2)
C25 C21 N22 C17 -177.59(14)
C20 C21 C25 C26 2.5(2)
N22 C21 C25 C26 -178.19(14)
C21 C25 C26 C27 -178.50(14)
