#------------------------------------------------------------------------------
#$Date: 2015-12-20 04:18:32 +0200 (Sun, 20 Dec 2015) $
#$Revision: 171653 $
#$URL: svn://www.crystallography.net/cod/cif/1/52/01/1520122.cif $
#------------------------------------------------------------------------------
#
# This file is available in the Crystallography Open Database (COD),
# http://www.crystallography.net/
#
# All data on this site have been placed in the public domain by the
# contributors.
#
data_1520122
loop_
_publ_author_name
'Sinha, A. S.'
'Rao Khandavilli, U. B.'
'O'Connor, E. L.'
'Deadman, B. J.'
'Maguire, A. R.'
'Lawrence, S. E.'
_publ_section_title
;
 Novel co-crystals of the nutraceutical sinapic acid
;
_journal_issue                   26
_journal_name_full               CrystEngComm
_journal_page_first              4832
_journal_paper_doi               10.1039/C5CE00777A
_journal_volume                  17
_journal_year                    2015
_chemical_formula_moiety         'C11 H12 O5, C7 H10 N2 O S, 2(C2 H3 N)'
_chemical_formula_sum            'C22 H28 N4 O6 S'
_chemical_formula_weight         476.54
_chemical_name_common
;
 Sinapic Acid + 6-Propyl-2-thiouracil . 2 Acetonitrile
;
_space_group_crystal_system      triclinic
_space_group_IT_number           2
_space_group_name_Hall           '-P 1'
_space_group_name_H-M_alt        'P -1'
_symmetry_space_group_name_Hall  '-P 1'
_symmetry_space_group_name_H-M   'P -1'
_atom_sites_solution_hydrogens   mixed
_audit_update_record
;
2015-04-21 deposited with the CCDC.
2015-05-29 downloaded from the CCDC.
;
_cell_angle_alpha                98.535(3)
_cell_angle_beta                 94.470(3)
_cell_angle_gamma                104.130(3)
_cell_formula_units_Z            2
_cell_length_a                   8.4520(6)
_cell_length_b                   10.6050(10)
_cell_length_c                   14.9134(13)
_cell_measurement_reflns_used    4329
_cell_measurement_temperature    300.(2)
_cell_measurement_theta_max      24.98
_cell_measurement_theta_min      2.23
_cell_volume                     1272.82(19)
_computing_cell_refinement       'SAINT V7.68A (Bruker AXS, 2009)'
_computing_data_collection       'Bruker Instrument Service v2011.12.3.0'
_computing_data_reduction        'SAINT V7.68A (Bruker AXS, 2009)'
_computing_molecular_graphics    'Mercury 3.0 (Macrae et al., 2008)'
_computing_structure_refinement  'SHELXL-97 (Sheldrick, 2008)'
_computing_structure_solution    'SHELXS-97 (Sheldrick, 2008)'
_diffrn_ambient_temperature      300.(2)
_diffrn_detector_area_resol_mean 8.3333
_diffrn_measured_fraction_theta_full 0.986
_diffrn_measured_fraction_theta_max 0.986
_diffrn_measurement_device_type  'Bruker APEXII DUO'
_diffrn_measurement_method       '\f & \w scans'
_diffrn_radiation_monochromator  Graphite
_diffrn_radiation_source         'Fine-focus sealed tube'
_diffrn_radiation_type           MoK\a
_diffrn_radiation_wavelength     0.71073
_diffrn_reflns_av_R_equivalents  0.0769
_diffrn_reflns_av_unetI/netI     0.0812
_diffrn_reflns_limit_h_max       9
_diffrn_reflns_limit_h_min       -10
_diffrn_reflns_limit_k_max       12
_diffrn_reflns_limit_k_min       -12
_diffrn_reflns_limit_l_max       17
_diffrn_reflns_limit_l_min       -17
_diffrn_reflns_number            15832
_diffrn_reflns_theta_full        25.06
_diffrn_reflns_theta_max         25.06
_diffrn_reflns_theta_min         2.64
_exptl_absorpt_coefficient_mu    0.169
_exptl_absorpt_correction_T_max  0.98
_exptl_absorpt_correction_T_min  0.85
_exptl_absorpt_correction_type   multi-scan
_exptl_absorpt_process_details   'SADABS V2014/4 (Bruker AXS Inc.)'
_exptl_crystal_colour            'Clear colourless'
_exptl_crystal_density_diffrn    1.243
_exptl_crystal_density_method    'not measured'
_exptl_crystal_description       Plate
_exptl_crystal_F_000             504
_exptl_crystal_size_max          0.270
_exptl_crystal_size_mid          0.220
_exptl_crystal_size_min          0.140
_refine_diff_density_max         0.612
_refine_diff_density_min         -0.397
_refine_ls_extinction_coef       0.019(4)
_refine_ls_extinction_method     SHELXL
_refine_ls_goodness_of_fit_ref   1.015
_refine_ls_hydrogen_treatment    constr
_refine_ls_matrix_type           full
_refine_ls_number_parameters     308
_refine_ls_number_reflns         4437
_refine_ls_number_restraints     8
_refine_ls_restrained_S_all      1.034
_refine_ls_R_factor_all          0.0995
_refine_ls_R_factor_gt           0.0522
_refine_ls_shift/su_max          0.001
_refine_ls_shift/su_mean         0.000
_refine_ls_structure_factor_coef Fsqd
_refine_ls_weighting_details
'w=1/[\s^2^(Fo^2^)+(0.0989P)^2^] where P=(Fo^2^+2Fc^2^)/3'
_refine_ls_weighting_scheme      calc
_refine_ls_wR_factor_gt          0.1468
_refine_ls_wR_factor_ref         0.1694
_reflns_number_gt                2886
_reflns_number_total             4437
_reflns_threshold_expression     'I > 2\s(I)'
_cod_data_source_file            c5ce00777a2.cif
_cod_data_source_block           SA.PTU.2MeCN_Room_Temp
_cod_depositor_comments
'Adding full bibliography for 1520118--1520122.cif.'
_cod_database_code               1520122
#BEGIN Tags that were not found in dictionaries:
_iucr_refine_instruction_details
;
TITL scan_0m_a.res in P-1
CELL  0.71073   8.4520  10.6050  14.9134   98.535   94.470  104.130
ZERR    2.000   0.0006   0.0010   0.0013    0.003    0.003    0.003
LATT 1
SFAC C  H  N  O  S
UNIT 44  56  8  12  2
L.S. 5
ACTA
BOND $H
HTAB O10 O24_$2
HTAB O14 O15
HTAB O14 N33_$4
HTAB N18 O11_$5
HTAB N22 S23_$6
HTAB C28 O12_$7
HTAB C31 O12_$8
EQIV $2_[ x+1, y, z ]
EQIV $4_[ x-1, y, z-1 ]
EQIV $5_[ x-1, y, z ]
EQIV $6_[ -x, -y, -z+1 ]
EQIV $7_[ -x+1, -y+2, -z+1 ]
EQIV $8_[ -x+1, -y+2, -z+1 ]
FMAP 2
PLAN 5
CONF
OMIT     0   0   1
OMIT     0  -1   1
OMIT     0   1   0
ISOR 0.002 c28
SIZE 0.14 0.22 0.27
dfix 0.89 0.005 N18 H18 N22 H22
TEMP 27.000
WGHT    0.098900
EXTI    0.019335
FVAR       0.50323
C1    1    0.428097    0.730383    0.309922    11.00000    0.03733    0.04047 =
         0.04393    0.00884    0.00339    0.01565
C2    1    0.364321    0.662747    0.222357    11.00000    0.05151    0.03797 =
         0.04718    0.00316    0.00534    0.02009
AFIX  43
H2    2    0.374545    0.577707    0.203841    11.00000   -1.20000
AFIX   0
C3    1    0.285354    0.722861    0.162776    11.00000    0.05322    0.04777 =
         0.03720    0.00070    0.00357    0.02003
C4    1    0.267084    0.848942    0.190406    11.00000    0.04336    0.04381 =
         0.04123    0.00950    0.00061    0.01621
C5    1    0.328245    0.916203    0.279107    11.00000    0.04664    0.03471 =
         0.05169    0.00608    0.00228    0.01653
C6    1    0.408315    0.855703    0.337712    11.00000    0.04753    0.04103 =
         0.04041   -0.00014   -0.00464    0.01671
AFIX  43
H6    2    0.449487    0.899918    0.396695    11.00000   -1.20000
AFIX   0
C7    1    0.519118    0.674705    0.373996    11.00000    0.04416    0.04506 =
         0.04298    0.00716   -0.00082    0.01592
AFIX  43
H7    2    0.557344    0.726948    0.431039    11.00000   -1.20000
AFIX   0
C8    1    0.553739    0.558748    0.360602    11.00000    0.05122    0.04215 =
         0.04565    0.00475   -0.00188    0.01839
AFIX  43
H8    2    0.511332    0.502403    0.305485    11.00000   -1.20000
AFIX   0
C9    1    0.653896    0.513513    0.426489    11.00000    0.04529    0.04162 =
         0.04767    0.00932    0.00572    0.01541
O10   4    0.712724    0.598998    0.503127    11.00000    0.06971    0.04811 =
         0.05263    0.00428   -0.01033    0.03107
AFIX 147
H10   2    0.767738    0.566991    0.536640    11.00000   -1.50000
AFIX   0
O11   4    0.684188    0.406158    0.412236    11.00000    0.07709    0.04380 =
         0.06276    0.00300   -0.01085    0.03111
O12   4    0.300232    1.036941    0.300260    11.00000    0.08661    0.04530 =
         0.05888   -0.00546   -0.01836    0.03441
C13   1    0.364915    1.113067    0.387917    11.00000    0.09819    0.04422 =
         0.06932   -0.01529   -0.01992    0.02977
AFIX 137
H13A  2    0.322307    1.064759    0.434175    11.00000   -1.50000
H13B  2    0.333551    1.194760    0.394050    11.00000   -1.50000
H13C  2    0.482583    1.131109    0.394744    11.00000   -1.50000
AFIX   0
O14   4    0.190767    0.911436    0.133749    11.00000    0.07319    0.05367 =
         0.04707    0.00988   -0.01167    0.02718
AFIX 147
H14   2    0.152807    0.860898    0.085562    11.00000   -1.50000
AFIX   0
O15   4    0.219898    0.668273    0.075239    11.00000    0.10172    0.06500 =
         0.04349   -0.00928   -0.01464    0.04331
C16   1    0.235247    0.542529    0.038708    11.00000    0.12474    0.06617 =
         0.05546   -0.02142   -0.01860    0.03928
AFIX 137
H16A  2    0.349258    0.542784    0.043746    11.00000   -1.50000
H16B  2    0.190118    0.520275   -0.024418    11.00000   -1.50000
H16C  2    0.176859    0.478561    0.071822    11.00000   -1.50000
AFIX   0
C17   1   -0.081502    0.200828    0.519617    11.00000    0.04822    0.03707 =
         0.04160    0.00689    0.00537    0.01923
N18   3   -0.113422    0.320662    0.535374    11.00000    0.05131    0.03708 =
         0.04123    0.00549    0.00047    0.02281
AFIX   3
H18   2   -0.174815    0.343652    0.492449    11.00000    0.06688
AFIX   0
C19   1   -0.066853    0.410297    0.616176    11.00000    0.04457    0.03530 =
         0.04686    0.00548    0.00560    0.01576
C20   1    0.020142    0.369348    0.687139    11.00000    0.05047    0.03581 =
         0.04113   -0.00045    0.00019    0.01536
AFIX  43
H20   2    0.055393    0.425607    0.742961    11.00000   -1.20000
AFIX   0
C21   1    0.052137    0.249989    0.674486    11.00000    0.03795    0.03656 =
         0.03865    0.00547    0.00381    0.01179
N22   3    0.001782    0.169408    0.590718    11.00000    0.05024    0.03804 =
         0.03839    0.00385    0.00093    0.02235
AFIX   3
H22   2    0.032679    0.094713    0.584615    11.00000    0.04851
AFIX   0
S23   5   -0.144142    0.098041    0.419799    11.00000    0.09155    0.05218 =
         0.04249   -0.00484   -0.01403    0.04159
O24   4   -0.103068    0.517003    0.621659    11.00000    0.07116    0.03808 =
         0.05804    0.00103   -0.00561    0.02834
C25   1    0.135282    0.190558    0.742903    11.00000    0.04908    0.03993 =
         0.04326    0.00750    0.00323    0.01988
AFIX  23
H25A  2    0.227583    0.165723    0.717279    11.00000   -1.20000
H25B  2    0.058814    0.110178    0.751906    11.00000   -1.20000
AFIX   0
C26   1    0.197849    0.276936    0.835780    11.00000    0.05789    0.05300 =
         0.04413    0.00431   -0.00161    0.01933
AFIX  23
H26A  2    0.278562    0.356091    0.828490    11.00000   -1.20000
H26B  2    0.107312    0.303442    0.862356    11.00000   -1.20000
AFIX   0
C27   1    0.274996    0.203715    0.899238    11.00000    0.07578    0.07923 =
         0.05178    0.01368   -0.00790    0.02609
AFIX 137
H27A  2    0.193672    0.127746    0.908880    11.00000   -1.50000
H27B  2    0.316998    0.261003    0.956671    11.00000   -1.50000
H27C  2    0.363226    0.175974    0.872396    11.00000   -1.50000
AFIX   0
C28   1    0.419738    0.847873    0.845690    11.00000    0.20807    0.20899 =
         0.24826    0.05643    0.06266    0.06077
AFIX 137
H28A  2    0.511690    0.905578    0.825987    11.00000   -1.50000
H28B  2    0.397853    0.888162    0.903805    11.00000   -1.50000
H28C  2    0.324848    0.832216    0.801712    11.00000   -1.50000
AFIX   0
C29   1    0.456514    0.725889    0.853934    11.00000    0.16288    0.09698 =
         0.15056    0.03783    0.06179    0.05719
N30   3    0.489465    0.636661    0.859558    11.00000    0.25258    0.11097 =
         0.09896   -0.01052   -0.00526    0.07411
C31   1    0.898755    0.773601    0.785873    11.00000    0.14258    0.09997 =
         0.06496    0.00395   -0.02055    0.05339
AFIX 137
H31A  2    0.843466    0.841105    0.778505    11.00000   -1.50000
H31B  2    0.819956    0.689094    0.774937    11.00000   -1.50000
H31C  2    0.978018    0.773892    0.743115    11.00000   -1.50000
AFIX   0
C32   1    0.981523    0.798833    0.878059    11.00000    0.09275    0.06795 =
         0.05699    0.01487   -0.00099    0.03455
N33   3    1.044807    0.819355    0.948301    11.00000    0.11722    0.12754 =
         0.06499    0.02232   -0.01465    0.04340
HKLF 4
 
REM  scan_0m_a.res in P-1
REM R1 =  0.0522 for    2886 Fo > 4sig(Fo)  and  0.0995 for all    4437 data
REM    308 parameters refined using      8 restraints
 
END  
     
WGHT      0.1005      0.0000 

REM Highest difference peak  0.612,  deepest hole -0.397,  1-sigma level  0.072
Q1    1   0.3778  0.8209  0.7951  11.00000  0.05    0.61
Q2    1   0.4763  0.8806  0.9155  11.00000  0.05    0.58
Q3    1  -0.2007  0.0598  0.4657  11.00000  0.05    0.30
Q4    1   0.3161  0.6195  0.8457  11.00000  0.05    0.27
Q5    1   0.4768  1.1601  0.3551  11.00000  0.05    0.24
;
#END Tags that were not found in dictionaries
loop_
_space_group_symop_operation_xyz
'x, y, z'
'-x, -y, -z'
loop_
_atom_site_type_symbol
_atom_site_label
_atom_site_fract_x
_atom_site_fract_y
_atom_site_fract_z
_atom_site_U_iso_or_equiv
_atom_site_adp_type
_atom_site_calc_flag
_atom_site_refinement_flags_adp
_atom_site_refinement_flags_posn
_atom_site_occupancy
C C1 0.4281(3) 0.7304(2) 0.30992(16) 0.0395(6) Uani d . . 1
C C2 0.3643(3) 0.6627(2) 0.22236(17) 0.0445(6) Uani d . . 1
H H2 0.3745 0.5777 0.2038 0.053 Uiso calc U R 1
C C3 0.2854(3) 0.7229(3) 0.16278(16) 0.0456(6) Uani d . . 1
C C4 0.2671(3) 0.8489(2) 0.19041(16) 0.0419(6) Uani d . . 1
C C5 0.3282(3) 0.9162(2) 0.27911(17) 0.0436(6) Uani d . . 1
C C6 0.4083(3) 0.8557(2) 0.33771(17) 0.0434(6) Uani d . . 1
H H6 0.4495 0.8999 0.3967 0.052 Uiso calc U R 1
C C7 0.5191(3) 0.6747(3) 0.37400(17) 0.0437(6) Uani d . . 1
H H7 0.5573 0.7269 0.431 0.052 Uiso calc U R 1
C C8 0.5537(3) 0.5587(2) 0.36060(17) 0.0460(6) Uani d . . 1
H H8 0.5113 0.5024 0.3055 0.055 Uiso calc U R 1
C C9 0.6539(3) 0.5135(2) 0.42649(17) 0.0439(6) Uani d . . 1
O O10 0.7127(2) 0.59900(18) 0.50313(12) 0.0555(5) Uani d . . 1
H H10 0.7677 0.567 0.5366 0.083 Uiso calc U R 1
O O11 0.6842(2) 0.40616(18) 0.41224(13) 0.0602(5) Uani d . . 1
O O12 0.3002(2) 1.03694(18) 0.30026(13) 0.0635(6) Uani d . . 1
C C13 0.3649(4) 1.1131(3) 0.3879(2) 0.0729(9) Uani d . . 1
H H13A 0.3223 1.0648 0.4342 0.109 Uiso calc U R 1
H H13B 0.3336 1.1948 0.394 0.109 Uiso calc U R 1
H H13C 0.4826 1.1311 0.3947 0.109 Uiso calc U R 1
O O14 0.1908(2) 0.91144(19) 0.13375(12) 0.0570(5) Uani d . . 1
H H14 0.1528 0.8609 0.0856 0.085 Uiso calc U R 1
O O15 0.2199(3) 0.6683(2) 0.07524(13) 0.0695(6) Uani d . . 1
C C16 0.2352(5) 0.5425(3) 0.0387(2) 0.0845(10) Uani d . . 1
H H16A 0.3493 0.5428 0.0437 0.127 Uiso calc U R 1
H H16B 0.1901 0.5203 -0.0244 0.127 Uiso calc U R 1
H H16C 0.1769 0.4786 0.0718 0.127 Uiso calc U R 1
C C17 -0.0815(3) 0.2008(2) 0.51962(16) 0.0408(6) Uani d . . 1
N N18 -0.1134(2) 0.32066(19) 0.53537(13) 0.0416(5) Uani d . D 1
H H18 -0.1748 0.3437 0.4924 0.067(8) Uiso d . DR 1
C C19 -0.0669(3) 0.4103(2) 0.61618(16) 0.0415(6) Uani d . . 1
C C20 0.0201(3) 0.3693(2) 0.68714(16) 0.0428(6) Uani d . . 1
H H20 0.0554 0.4256 0.743 0.051 Uiso calc U R 1
C C21 0.0521(3) 0.2500(2) 0.67449(15) 0.0375(5) Uani d . . 1
N N22 0.0018(2) 0.1694(2) 0.59072(13) 0.0408(5) Uani d . D 1
H H22 0.0327 0.0947 0.5846 0.049(7) Uiso d . DR 1
S S23 -0.14414(10) 0.09804(7) 0.41980(5) 0.0606(3) Uani d . . 1
O O24 -0.1031(2) 0.51700(17) 0.62166(12) 0.0548(5) Uani d . . 1
C C25 0.1353(3) 0.1906(2) 0.74290(16) 0.0427(6) Uani d . . 1
H H25A 0.2276 0.1657 0.7173 0.051 Uiso calc U R 1
H H25B 0.0588 0.1102 0.7519 0.051 Uiso calc U R 1
C C26 0.1978(3) 0.2769(3) 0.83578(17) 0.0517(7) Uani d . . 1
H H26A 0.2786 0.3561 0.8285 0.062 Uiso calc U R 1
H H26B 0.1073 0.3034 0.8624 0.062 Uiso calc U R 1
C C27 0.2750(4) 0.2037(3) 0.8992(2) 0.0685(8) Uani d . . 1
H H27A 0.1937 0.1277 0.9089 0.103 Uiso calc U R 1
H H27B 0.317 0.261 0.9567 0.103 Uiso calc U R 1
H H27C 0.3632 0.176 0.8724 0.103 Uiso calc U R 1
C C28 0.4197(10) 0.8479(9) 0.8457(6) 0.217(3) Uani d U . 1
H H28A 0.5117 0.9056 0.826 0.325 Uiso calc U R 1
H H28B 0.3979 0.8882 0.9038 0.325 Uiso calc U R 1
H H28C 0.3248 0.8322 0.8017 0.325 Uiso calc U R 1
C C29 0.4565(7) 0.7259(6) 0.8539(4) 0.1285(19) Uani d . . 1
N N30 0.4895(8) 0.6367(5) 0.8596(3) 0.1539(19) Uani d . . 1
C C31 0.8988(5) 0.7736(4) 0.7859(3) 0.1015(13) Uani d . . 1
H H31A 0.8435 0.8411 0.7785 0.152 Uiso calc U R 1
H H31B 0.82 0.6891 0.7749 0.152 Uiso calc U R 1
H H31C 0.978 0.7739 0.7431 0.152 Uiso calc U R 1
C C32 0.9815(4) 0.7988(3) 0.8781(2) 0.0703(9) Uani d . . 1
N N33 1.0448(4) 0.8194(4) 0.9483(2) 0.1020(11) Uani d . . 1
loop_
_atom_site_aniso_label
_atom_site_aniso_U_11
_atom_site_aniso_U_22
_atom_site_aniso_U_33
_atom_site_aniso_U_12
_atom_site_aniso_U_13
_atom_site_aniso_U_23
C1 0.0373(12) 0.0405(13) 0.0439(13) 0.0156(10) 0.0034(10) 0.0088(10)
C2 0.0515(14) 0.0380(14) 0.0472(14) 0.0201(11) 0.0053(11) 0.0032(11)
C3 0.0532(15) 0.0478(15) 0.0372(13) 0.0200(12) 0.0036(11) 0.0007(11)
C4 0.0434(13) 0.0438(14) 0.0412(13) 0.0162(11) 0.0006(10) 0.0095(11)
C5 0.0466(14) 0.0347(13) 0.0517(15) 0.0165(11) 0.0023(11) 0.0061(11)
C6 0.0475(14) 0.0410(14) 0.0404(13) 0.0167(11) -0.0046(10) -0.0001(10)
C7 0.0442(13) 0.0451(14) 0.0430(13) 0.0159(11) -0.0008(10) 0.0072(11)
C8 0.0512(14) 0.0422(14) 0.0457(14) 0.0184(12) -0.0019(11) 0.0047(11)
C9 0.0453(14) 0.0416(15) 0.0477(15) 0.0154(12) 0.0057(11) 0.0093(11)
O10 0.0697(12) 0.0481(11) 0.0526(11) 0.0311(9) -0.0103(9) 0.0043(9)
O11 0.0771(12) 0.0438(11) 0.0628(12) 0.0311(9) -0.0108(10) 0.0030(9)
O12 0.0866(13) 0.0453(11) 0.0589(12) 0.0344(10) -0.0184(10) -0.0055(9)
C13 0.098(2) 0.0442(17) 0.069(2) 0.0298(16) -0.0199(17) -0.0153(14)
O14 0.0732(12) 0.0537(12) 0.0471(11) 0.0272(10) -0.0117(9) 0.0099(9)
O15 0.1017(15) 0.0650(13) 0.0435(11) 0.0433(11) -0.0146(10) -0.0093(9)
C16 0.125(3) 0.066(2) 0.0555(19) 0.039(2) -0.0186(18) -0.0214(15)
C17 0.0482(13) 0.0371(13) 0.0416(13) 0.0192(11) 0.0054(10) 0.0069(10)
N18 0.0513(12) 0.0371(11) 0.0412(11) 0.0228(9) 0.0005(9) 0.0055(9)
C19 0.0446(13) 0.0353(13) 0.0469(14) 0.0158(11) 0.0056(11) 0.0055(11)
C20 0.0505(14) 0.0358(13) 0.0411(13) 0.0154(11) 0.0002(11) -0.0005(10)
C21 0.0380(12) 0.0366(13) 0.0387(13) 0.0118(10) 0.0038(10) 0.0055(10)
N22 0.0502(11) 0.0380(11) 0.0384(11) 0.0223(9) 0.0009(9) 0.0038(9)
S23 0.0915(6) 0.0522(4) 0.0425(4) 0.0416(4) -0.0140(3) -0.0048(3)
O24 0.0712(12) 0.0381(10) 0.0580(12) 0.0283(9) -0.0056(9) 0.0010(8)
C25 0.0491(14) 0.0399(14) 0.0433(13) 0.0199(11) 0.0032(11) 0.0075(10)
C26 0.0579(16) 0.0530(16) 0.0441(14) 0.0193(13) -0.0016(12) 0.0043(12)
C27 0.076(2) 0.079(2) 0.0518(17) 0.0261(17) -0.0079(14) 0.0137(15)
C28 0.208(4) 0.209(5) 0.248(5) 0.061(3) 0.063(4) 0.056(4)
C29 0.163(5) 0.097(4) 0.151(5) 0.057(4) 0.062(4) 0.038(4)
N30 0.253(6) 0.111(4) 0.099(3) 0.074(4) -0.005(3) -0.011(3)
C31 0.143(3) 0.100(3) 0.065(2) 0.053(3) -0.021(2) 0.004(2)
C32 0.093(2) 0.068(2) 0.0570(19) 0.0346(18) -0.0010(17) 0.0149(16)
N33 0.117(2) 0.128(3) 0.065(2) 0.043(2) -0.0146(18) 0.022(2)
loop_
_atom_type_symbol
_atom_type_description
_atom_type_scat_dispersion_real
_atom_type_scat_dispersion_imag
_atom_type_scat_source
C C 0.0033 0.0016 'International Tables Vol C Tables 4.2.6.8 and 6.1.1.4'
H H 0.0000 0.0000 'International Tables Vol C Tables 4.2.6.8 and 6.1.1.4'
N N 0.0061 0.0033 'International Tables Vol C Tables 4.2.6.8 and 6.1.1.4'
O O 0.0106 0.0060 'International Tables Vol C Tables 4.2.6.8 and 6.1.1.4'
S S 0.1246 0.1234 'International Tables Vol C Tables 4.2.6.8 and 6.1.1.4'
loop_
_geom_angle_atom_site_label_1
_geom_angle_atom_site_label_2
_geom_angle_atom_site_label_3
_geom_angle
C6 C1 C2 119.8(2)
C6 C1 C7 118.2(2)
C2 C1 C7 122.0(2)
C3 C2 C1 119.6(2)
C3 C2 H2 120.2
C1 C2 H2 120.2
O15 C3 C2 125.4(2)
O15 C3 C4 114.1(2)
C2 C3 C4 120.5(2)
O14 C4 C3 122.3(2)
O14 C4 C5 117.8(2)
C3 C4 C5 119.9(2)
O12 C5 C6 125.6(2)
O12 C5 C4 115.5(2)
C6 C5 C4 119.0(2)
C5 C6 C1 121.1(2)
C5 C6 H6 119.4
C1 C6 H6 119.4
C8 C7 C1 127.7(3)
C8 C7 H7 116.1
C1 C7 H7 116.1
C7 C8 C9 124.3(3)
C7 C8 H8 117.8
C9 C8 H8 117.8
O11 C9 O10 122.1(2)
O11 C9 C8 122.9(2)
O10 C9 C8 115.0(2)
C9 O10 H10 109.5
C5 O12 C13 118.4(2)
O12 C13 H13A 109.5
O12 C13 H13B 109.5
H13A C13 H13B 109.5
O12 C13 H13C 109.5
H13A C13 H13C 109.5
H13B C13 H13C 109.5
C4 O14 H14 109.5
C3 O15 C16 119.3(2)
O15 C16 H16A 109.5
O15 C16 H16B 109.5
H16A C16 H16B 109.5
O15 C16 H16C 109.5
H16A C16 H16C 109.5
H16B C16 H16C 109.5
N18 C17 N22 115.3(2)
N18 C17 S23 122.09(17)
N22 C17 S23 122.60(19)
C17 N18 C19 125.35(19)
C17 N18 H18 119.0
C19 N18 H18 115.5
O24 C19 N18 119.0(2)
O24 C19 C20 125.4(2)
N18 C19 C20 115.6(2)
C21 C20 C19 120.8(2)
C21 C20 H20 119.6
C19 C20 H20 119.6
C20 C21 N22 118.6(2)
C20 C21 C25 127.2(2)
N22 C21 C25 114.1(2)
C17 N22 C21 124.3(2)
C17 N22 H22 120.6
C21 N22 H22 115.0
C21 C25 C26 116.3(2)
C21 C25 H25A 108.2
C26 C25 H25A 108.2
C21 C25 H25B 108.2
C26 C25 H25B 108.2
H25A C25 H25B 107.4
C27 C26 C25 110.9(2)
C27 C26 H26A 109.5
C25 C26 H26A 109.5
C27 C26 H26B 109.5
C25 C26 H26B 109.5
H26A C26 H26B 108.1
C26 C27 H27A 109.5
C26 C27 H27B 109.5
H27A C27 H27B 109.5
C26 C27 H27C 109.5
H27A C27 H27C 109.5
H27B C27 H27C 109.5
C29 C28 H28A 109.5
C29 C28 H28B 109.5
H28A C28 H28B 109.5
C29 C28 H28C 109.5
H28A C28 H28C 109.5
H28B C28 H28C 109.5
N30 C29 C28 177.4(8)
C32 C31 H31A 109.5
C32 C31 H31B 109.5
H31A C31 H31B 109.5
C32 C31 H31C 109.5
H31A C31 H31C 109.5
H31B C31 H31C 109.5
N33 C32 C31 179.3(4)
loop_
_geom_bond_atom_site_label_1
_geom_bond_atom_site_label_2
_geom_bond_distance
C1 C6 1.386(3)
C1 C2 1.391(3)
C1 C7 1.459(3)
C2 C3 1.387(3)
C2 H2 0.93
C3 O15 1.361(3)
C3 C4 1.389(4)
C4 O14 1.364(3)
C4 C5 1.400(3)
C5 O12 1.355(3)
C5 C6 1.386(3)
C6 H6 0.93
C7 C8 1.323(3)
C7 H7 0.93
C8 C9 1.456(3)
C8 H8 0.93
C9 O11 1.219(3)
C9 O10 1.326(3)
O10 H10 0.82
O12 C13 1.421(3)
C13 H13A 0.96
C13 H13B 0.96
C13 H13C 0.96
O14 H14 0.82
O15 C16 1.404(4)
C16 H16A 0.96
C16 H16B 0.96
C16 H16C 0.96
C17 N18 1.353(3)
C17 N22 1.354(3)
C17 S23 1.673(3)
N18 C19 1.383(3)
N18 H18 0.8915
C19 O24 1.236(3)
C19 C20 1.421(3)
C20 C21 1.347(3)
C20 H20 0.93
C21 N22 1.376(3)
C21 C25 1.492(3)
N22 H22 0.8873
C25 C26 1.520(3)
C25 H25A 0.97
C25 H25B 0.97
C26 C27 1.514(3)
C26 H26A 0.97
C26 H26B 0.97
C27 H27A 0.96
C27 H27B 0.96
C27 H27C 0.96
C28 C29 1.422(9)
C28 H28A 0.96
C28 H28B 0.96
C28 H28C 0.96
C29 N30 1.062(6)
C31 C32 1.449(5)
C31 H31A 0.96
C31 H31B 0.96
C31 H31C 0.96
C32 N33 1.104(4)
loop_
_geom_hbond_atom_site_label_D
_geom_hbond_atom_site_label_H
_geom_hbond_atom_site_label_A
_geom_hbond_site_symmetry_A
_geom_hbond_distance_DH
_geom_hbond_distance_HA
_geom_hbond_distance_DA
_geom_hbond_angle_DHA
O10 H10 O24 1_655 0.82 1.83 2.644(2) 172.3
O14 H14 O15 . 0.82 2.24 2.673(3) 113.6
O14 H14 N33 1_454 0.82 2.11 2.864(4) 152.3
N18 H18 O11 1_455 0.89 1.92 2.808(2) 172.8
N22 H22 S23 2_556 0.89 2.45 3.329(2) 173.6
C28 H28A O12 2_676 0.96 2.60 3.466(8) 149.6
C31 H31A O12 2_676 0.96 2.35 3.255(4) 156.9
loop_
_geom_torsion_atom_site_label_1
_geom_torsion_atom_site_label_2
_geom_torsion_atom_site_label_3
_geom_torsion_atom_site_label_4
_geom_torsion
C6 C1 C2 C3 1.8(4)
C7 C1 C2 C3 -177.0(2)
C1 C2 C3 O15 179.0(2)
C1 C2 C3 C4 -1.1(4)
O15 C3 C4 O14 -0.4(3)
C2 C3 C4 O14 179.8(2)
O15 C3 C4 C5 179.7(2)
C2 C3 C4 C5 -0.2(4)
O14 C4 C5 O12 1.9(3)
C3 C4 C5 O12 -178.2(2)
O14 C4 C5 C6 -179.1(2)
C3 C4 C5 C6 0.8(4)
O12 C5 C6 C1 178.7(2)
C4 C5 C6 C1 -0.2(4)
C2 C1 C6 C5 -1.1(4)
C7 C1 C6 C5 177.7(2)
C6 C1 C7 C8 -178.9(2)
C2 C1 C7 C8 -0.1(4)
C1 C7 C8 C9 176.2(2)
C7 C8 C9 O11 -179.8(2)
C7 C8 C9 O10 -0.9(4)
C6 C5 O12 C13 3.7(4)
C4 C5 O12 C13 -177.4(2)
C2 C3 O15 C16 -2.1(4)
C4 C3 O15 C16 178.1(3)
N22 C17 N18 C19 0.6(3)
S23 C17 N18 C19 179.46(17)
C17 N18 C19 O24 179.7(2)
C17 N18 C19 C20 -0.6(3)
O24 C19 C20 C21 179.3(2)
N18 C19 C20 C21 -0.4(3)
C19 C20 C21 N22 1.3(3)
C19 C20 C21 C25 -177.2(2)
N18 C17 N22 C21 0.4(3)
S23 C17 N22 C21 -178.49(17)
C20 C21 N22 C17 -1.3(3)
C25 C21 N22 C17 177.43(19)
C20 C21 C25 C26 -3.1(4)
N22 C21 C25 C26 178.3(2)
C21 C25 C26 C27 178.4(2)
