#------------------------------------------------------------------------------
#$Date: 2016-02-13 14:50:18 +0200 (Sat, 13 Feb 2016) $
#$Revision: 176428 $
#$URL: svn://www.crystallography.net/cod/cif/1/52/92/1529222.cif $
#------------------------------------------------------------------------------
#
# This file is available in the Crystallography Open Database (COD),
# http://www.crystallography.net/
#
# All data on this site have been placed in the public domain by the
# contributors.
#
data_1529222
loop_
_publ_author_name
'Golovnev, Nicolay'
'Molokeev, Maxim'
'Vereshchagin, Sergey'
'Atuchin, Victor'
_publ_section_title
;
 Calcium and strontium thiobarbiturates with discrete and polymeric
 structures
;
_journal_issue                   23
_journal_name_full               'Journal of Coordination Chemistry'
_journal_page_first              4119
_journal_paper_doi               10.1080/00958972.2013.860450
_journal_volume                  66
_journal_year                    2013
_chemical_formula_moiety         'C8 H16 Ca N4 O9 S2, 2(H2 O)'
_chemical_formula_sum            'C8 H20 Ca N4 O11 S2'
_chemical_formula_weight         452.50
_chemical_name_systematic
; 
Bis(2-thiobarbiturato-O)-pentaaqua-calcium dihydrate 
;
_space_group_IT_number           60
_symmetry_cell_setting           orthorhombic
_symmetry_space_group_name_Hall  '-P 2n 2ab'
_symmetry_space_group_name_H-M   'P b c n'
_atom_sites_solution_hydrogens   geom
_atom_sites_solution_primary     direct
_atom_sites_solution_secondary   difmap
_audit_creation_method           SHELXL-97
_cell_angle_alpha                90.00
_cell_angle_beta                 90.00
_cell_angle_gamma                90.00
_cell_formula_units_Z            4
_cell_length_a                   12.9805(16)
_cell_length_b                   8.4004(10)
_cell_length_c                   17.069(2)
_cell_measurement_reflns_used    6133
_cell_measurement_temperature    296(2)
_cell_measurement_theta_max      29.57
_cell_measurement_theta_min      2.39
_cell_volume                     1861.2(4)
_computing_cell_refinement       'APEX2 (Bruker, 2003-2008)'
_computing_data_collection       'APEX2 (Bruker, 2003-2008)'
_computing_data_reduction        'SAINT (Bruker, 2009)'
_computing_molecular_graphics    'DIAMOND (Brandenburg, 2005)'
_computing_publication_material  'publCIF (Westrip, 2009)'
_computing_structure_refinement  'SHELXL-97 (Sheldrick, 2008)'
_computing_structure_solution    'SHELXS-97 (Sheldrick, 2008)'
_diffrn_ambient_temperature      296(2)
_diffrn_measured_fraction_theta_full 0.000
_diffrn_measured_fraction_theta_max 0.967
_diffrn_measurement_device_type  'Bruker APEX-II CCD'
_diffrn_measurement_method       '\f and \w scans'
_diffrn_radiation_monochromator  graphite
_diffrn_radiation_source         'fine-focus sealed tube'
_diffrn_radiation_type           MoK\a
_diffrn_radiation_wavelength     0.71073
_diffrn_reflns_av_R_equivalents  0.0379
_diffrn_reflns_av_sigmaI/netI    0.0232
_diffrn_reflns_limit_h_max       17
_diffrn_reflns_limit_h_min       -17
_diffrn_reflns_limit_k_max       11
_diffrn_reflns_limit_k_min       -11
_diffrn_reflns_limit_l_max       22
_diffrn_reflns_limit_l_min       -23
_diffrn_reflns_number            16498
_diffrn_reflns_theta_full        2.00
_diffrn_reflns_theta_max         29.68
_diffrn_reflns_theta_min         2.39
_exptl_absorpt_coefficient_mu    0.622
_exptl_absorpt_correction_T_max  0.7459
_exptl_absorpt_correction_T_min  0.5652
_exptl_absorpt_correction_type   multi-scan
_exptl_absorpt_process_details
;
SADABS-2004/1. Bruker AXS Inc., Madison, Wisconsin, USA, 2004
;
_exptl_crystal_colour            pink
_exptl_crystal_density_diffrn    1.615
_exptl_crystal_density_method    'not measured'
_exptl_crystal_description       bulk
_exptl_crystal_F_000             944
_exptl_crystal_size_max          0.4
_exptl_crystal_size_mid          0.3
_exptl_crystal_size_min          0.1
_refine_diff_density_max         0.538
_refine_diff_density_min         -0.220
_refine_diff_density_rms         0.060
_refine_ls_extinction_method     none
_refine_ls_goodness_of_fit_ref   1.063
_refine_ls_hydrogen_treatment    mixed
_refine_ls_matrix_type           full
_refine_ls_number_parameters     141
_refine_ls_number_reflns         2551
_refine_ls_number_restraints     12
_refine_ls_restrained_S_all      1.068
_refine_ls_R_factor_all          0.0396
_refine_ls_R_factor_gt           0.0312
_refine_ls_shift/su_max          0.001
_refine_ls_shift/su_mean         0.000
_refine_ls_structure_factor_coef Fsqd
_refine_ls_weighting_details
'calc w=1/[\s^2^(Fo^2^)+(0.0476P)^2^+0.4494P] where P=(Fo^2^+2Fc^2^)/3'
_refine_ls_weighting_scheme      calc
_refine_ls_wR_factor_gt          0.0807
_refine_ls_wR_factor_ref         0.0863
_reflns_number_gt                2150
_reflns_number_total             2551
_reflns_threshold_expression     >2sigma(I)
_iucr_refine_instructions_details
;
TITL Ca(HTBA)2_7H2O in Pbcn
CELL 0.71073  12.9805   8.4004  17.0690  90.000  90.000  90.000
ZERR   4.00   0.0016   0.0010   0.0021   0.000   0.000   0.000
LATT  1
SYMM 0.5-X, 0.5-Y, 0.5+Z
SYMM -X, Y, 0.5-Z
SYMM 0.5+X, 0.5-Y, -Z
SFAC C N O S CA H
UNIT 32 16 44 8 4 80
TEMP 23.000
 
L.S. 4
BOND
FMAP 2
PLAN 20
ACTA 4
 
EQIV $1 -x+1, y, -z+0.5
 
DFIX 0.9 0.03 O3 H31
DFIX 0.9 0.03 O3 H32
DFIX 1.45 0.03 H31 H32
 
DFIX 0.9 0.03 O4 H41
DFIX 0.9 0.03 O4 H42
DFIX 1.45 0.03 H41 H42
 
DFIX 0.9 0.03 O5 H51
DFIX 0.9 0.03 O5 H51_$1
DFIX 1.45 0.03 H51 H51_$1
 
DFIX 0.9 0.03 O6 H61
DFIX 0.9 0.03 O6 H62
DFIX 1.45 0.01 H61 H62
 
WGHT    0.047600    0.449400
FVAR       0.10460   0.05474
MOLE   1
CA    5    0.500000    0.233073    0.250000    10.50000    0.02876    0.02875 =
         0.01595    0.00000    0.00037    0.00000
S     4    0.760269   -0.047515   -0.065064    11.00000    0.03106    0.03556 =
         0.03303   -0.00153   -0.00183    0.00859
O1    3    0.562202    0.266668    0.123415    11.00000    0.04723    0.04996 =
         0.01576   -0.00278    0.00263    0.00276
O2    3    0.448720    0.248353   -0.140098    11.00000    0.03339    0.03742 =
         0.02363   -0.00025   -0.00704    0.00568
N1    2    0.589415    0.116538   -0.096785    11.00000    0.02855    0.03180 =
         0.01705   -0.00263   -0.00149    0.00411
AFIX  43
H1    6    0.598067    0.084551   -0.144192    11.00000   -1.20000
AFIX   0
N3    2    0.640695    0.118301    0.030869    11.00000    0.02971    0.03333 =
         0.01762    0.00252   -0.00292    0.00182
AFIX  43
H3    6    0.681047    0.083935    0.067074    11.00000   -1.20000
AFIX   0
C2    1    0.658162    0.067670   -0.042782    11.00000    0.02598    0.02516 =
         0.02082    0.00144   -0.00044   -0.00169
C4    1    0.562289    0.222017    0.052811    11.00000    0.02929    0.03205 =
         0.01807    0.00036    0.00321   -0.00221
C5    1    0.492322    0.267145   -0.005021    11.00000    0.02741    0.03528 =
         0.02182   -0.00205    0.00199    0.00295
AFIX  43
H5    6    0.436844    0.332256    0.007698    11.00000   -1.20000
AFIX   0
C6    1    0.505326    0.215009   -0.081650    11.00000    0.02513    0.02612 =
         0.02129    0.00050   -0.00222   -0.00032
O3    3    0.332186    0.284967    0.198030    11.00000    0.04404    0.03875 =
         0.04965    0.00188   -0.01743    0.00320
H31   6    0.329585    0.373156    0.174802    11.00000   -1.20000
H32   6    0.306136    0.216536    0.164168    11.00000   -1.20000
O4    3    0.391543   -0.011902    0.259091    11.00000    0.02894    0.03490 =
         0.02508    0.00325    0.00210    0.00194
H41   6    0.332875    0.009995    0.275165    11.00000   -1.20000
H42   6    0.413885   -0.090483    0.286272    11.00000   -1.20000
O5    3    0.500000    0.515849    0.250000    10.50000    0.06590    0.03134 =
         0.03401    0.00000    0.02050    0.00000
H51   6    0.514119    0.575634    0.210565    11.00000   -1.20000
O6    3    0.213400    0.033255    0.351748    11.00000    0.02789    0.04363 =
         0.03880   -0.00073   -0.00290    0.00042
H61   6    0.182250   -0.055604    0.360189    11.00000   -1.20000
H62   6    0.167792    0.113536    0.353894    11.00000   -1.20000
 
HKLF 4
 
REM  Ca(HTBA)2_7H2O in Pbcn
REM R1 =  0.0312 for   2150 Fo > 4sig(Fo)  and  0.0396 for all   2551 data
REM    141 parameters refined using     12 restraints
 
END  
     
WGHT      0.0472      0.4650 
REM Highest difference peak  0.538,  deepest hole -0.220,  1-sigma level  0.060
Q1    1   0.5000  0.3362  0.2500  10.50000  0.05    0.54
Q2    1   0.5000  0.1279  0.2500  10.50000  0.05    0.54
Q3    1   0.7401  0.0554 -0.0602  11.00000  0.05    0.38
Q4    1   0.5000  0.4245  0.2500  10.50000  0.05    0.37
Q5    1   0.7558 -0.1613 -0.0682  11.00000  0.05    0.34
Q6    1   0.5161  0.2354  0.0246  11.00000  0.05    0.30
Q7    1   0.5003  0.2509 -0.0424  11.00000  0.05    0.30
Q8    1   0.5422  0.1444 -0.0860  11.00000  0.05    0.29
Q9    1   0.5659  0.1891 -0.0903  11.00000  0.05    0.29
Q10   1   0.4393  0.3332 -0.1405  11.00000  0.05    0.25
Q11   1   0.6208  0.1035 -0.0696  11.00000  0.05    0.24
Q12   1   0.6149  0.1985  0.0317  11.00000  0.05    0.23
Q13   1   0.4786  0.2509 -0.1147  11.00000  0.05    0.22
Q14   1   0.4219  0.2105 -0.1181  11.00000  0.05    0.22
Q15   1   0.5550  0.3790  0.1194  11.00000  0.05    0.22
Q16   1   0.5569  0.1758  0.1180  11.00000  0.05    0.21
Q17   1   0.5329  0.2125  0.1347  11.00000  0.05    0.20
Q18   1   0.3999  0.0896  0.2562  11.00000  0.05    0.20
Q19   1   0.5963  0.1075 -0.1182  11.00000  0.05    0.20
Q20   1   0.5807  0.1292  0.0430  11.00000  0.05    0.20
;
_cod_data_source_file            CaHTBA2H2O7.cif
_cod_data_source_block           a
_cod_original_sg_symbol_Hall
;
-P 2n 2ab
;
_cod_original_sg_symbol_H-M      Pbcn
_cod_database_code               1529222
_cod_database_fobs_code          1529222
loop_
_symmetry_equiv_pos_as_xyz
'x, y, z'
'-x+1/2, -y+1/2, z+1/2'
'-x, y, -z+1/2'
'x+1/2, -y+1/2, -z'
'-x, -y, -z'
'x-1/2, y-1/2, -z-1/2'
'x, -y, z-1/2'
'-x-1/2, y-1/2, z'
loop_
_atom_site_label
_atom_site_type_symbol
_atom_site_fract_x
_atom_site_fract_y
_atom_site_fract_z
_atom_site_U_iso_or_equiv
_atom_site_adp_type
_atom_site_occupancy
_atom_site_symmetry_multiplicity
_atom_site_calc_flag
_atom_site_refinement_flags
_atom_site_disorder_assembly
_atom_site_disorder_group
Ca Ca 0.5000 0.23307(5) 0.2500 0.02449(11) Uani 1 2 d S . .
S S 0.76027(3) -0.04752(5) -0.06506(2) 0.03322(12) Uani 1 1 d . . .
O1 O 0.56220(10) 0.26667(14) 0.12341(6) 0.0376(3) Uani 1 1 d . . .
O2 O 0.44872(8) 0.24835(12) -0.14010(6) 0.0315(2) Uani 1 1 d . . .
N1 N 0.58941(9) 0.11654(14) -0.09679(6) 0.0258(2) Uani 1 1 d . . .
H1 H 0.5981 0.0846 -0.1442 0.031 Uiso 1 1 calc R . .
N3 N 0.64069(9) 0.11830(14) 0.03087(6) 0.0269(2) Uani 1 1 d . . .
H3 H 0.6810 0.0839 0.0671 0.032 Uiso 1 1 calc R . .
C2 C 0.65816(10) 0.06767(16) -0.04278(8) 0.0240(3) Uani 1 1 d . . .
C4 C 0.56229(11) 0.22202(17) 0.05281(8) 0.0265(3) Uani 1 1 d . . .
C5 C 0.49232(11) 0.26714(18) -0.00502(9) 0.0282(3) Uani 1 1 d . . .
H5 H 0.4368 0.3323 0.0077 0.034 Uiso 1 1 calc R . .
C6 C 0.50533(10) 0.21501(16) -0.08165(8) 0.0242(3) Uani 1 1 d . . .
O3 O 0.33219(10) 0.28497(15) 0.19803(8) 0.0441(3) Uani 1 1 d D . .
H31 H 0.3296(18) 0.373(2) 0.1748(13) 0.053 Uiso 1 1 d D . .
H32 H 0.3061(17) 0.217(2) 0.1642(13) 0.053 Uiso 1 1 d D . .
O4 O 0.39154(9) -0.01190(13) 0.25909(6) 0.0296(2) Uani 1 1 d D . .
H41 H 0.3329(14) 0.010(2) 0.2752(11) 0.036 Uiso 1 1 d D . .
H42 H 0.4139(13) -0.090(2) 0.2863(11) 0.036 Uiso 1 1 d D . .
O5 O 0.5000 0.5158(2) 0.2500 0.0437(4) Uani 1 2 d SD . .
H51 H 0.5141(17) 0.576(2) 0.2106(8) 0.052 Uiso 1 1 d D . .
O6 O 0.21340(9) 0.03326(15) 0.35175(7) 0.0368(3) Uani 1 1 d D . .
H61 H 0.1823(15) -0.0556(17) 0.3602(12) 0.044 Uiso 1 1 d D . .
H62 H 0.1678(15) 0.1135(17) 0.3539(12) 0.044 Uiso 1 1 d D . .
loop_
_atom_site_aniso_label
_atom_site_aniso_U_11
_atom_site_aniso_U_22
_atom_site_aniso_U_33
_atom_site_aniso_U_23
_atom_site_aniso_U_13
_atom_site_aniso_U_12
Ca 0.0288(2) 0.0287(2) 0.01595(18) 0.000 0.00037(13) 0.000
S 0.0311(2) 0.0356(2) 0.0330(2) -0.00153(14) -0.00183(14) 0.00859(14)
O1 0.0472(7) 0.0500(7) 0.0158(5) -0.0028(4) 0.0026(4) 0.0028(5)
O2 0.0334(6) 0.0374(6) 0.0236(5) -0.0003(4) -0.0070(4) 0.0057(4)
N1 0.0285(6) 0.0318(6) 0.0171(5) -0.0026(4) -0.0015(4) 0.0041(5)
N3 0.0297(6) 0.0333(6) 0.0176(5) 0.0025(4) -0.0029(4) 0.0018(5)
C2 0.0260(6) 0.0252(6) 0.0208(6) 0.0014(5) -0.0004(5) -0.0017(5)
C4 0.0293(7) 0.0320(7) 0.0181(6) 0.0004(5) 0.0032(5) -0.0022(5)
C5 0.0274(7) 0.0353(7) 0.0218(6) -0.0020(5) 0.0020(5) 0.0030(6)
C6 0.0251(7) 0.0261(6) 0.0213(6) 0.0005(5) -0.0022(5) -0.0003(5)
O3 0.0440(7) 0.0387(6) 0.0496(7) 0.0019(5) -0.0174(6) 0.0032(5)
O4 0.0289(5) 0.0349(5) 0.0251(5) 0.0032(4) 0.0021(4) 0.0019(4)
O5 0.0659(12) 0.0313(8) 0.0340(8) 0.000 0.0205(8) 0.000
O6 0.0279(5) 0.0436(6) 0.0388(6) -0.0007(5) -0.0029(5) 0.0004(5)
loop_
_atom_type_symbol
_atom_type_description
_atom_type_scat_dispersion_real
_atom_type_scat_dispersion_imag
_atom_type_scat_source
C C 0.0033 0.0016 'International Tables Vol C Tables 4.2.6.8 and 6.1.1.4'
N N 0.0061 0.0033 'International Tables Vol C Tables 4.2.6.8 and 6.1.1.4'
O O 0.0106 0.0060 'International Tables Vol C Tables 4.2.6.8 and 6.1.1.4'
S S 0.1246 0.1234 'International Tables Vol C Tables 4.2.6.8 and 6.1.1.4'
Ca Ca 0.2262 0.3064 'International Tables Vol C Tables 4.2.6.8 and 6.1.1.4'
H H 0.0000 0.0000 'International Tables Vol C Tables 4.2.6.8 and 6.1.1.4'
loop_
_geom_angle_atom_site_label_1
_geom_angle_atom_site_label_2
_geom_angle_atom_site_label_3
_geom_angle
_geom_angle_site_symmetry_1
_geom_angle_site_symmetry_3
O1 Ca O1 166.05(6) . 3_655
O1 Ca O5 83.02(3) . .
O1 Ca O5 83.02(3) 3_655 .
O1 Ca O3 87.10(5) . .
O1 Ca O3 90.36(5) 3_655 .
O5 Ca O3 79.50(3) . .
O1 Ca O3 90.36(5) . 3_655
O1 Ca O3 87.10(5) 3_655 3_655
O5 Ca O3 79.50(3) . 3_655
O3 Ca O3 159.00(7) . 3_655
O1 Ca O4 110.71(4) . .
O1 Ca O4 81.17(4) 3_655 .
O5 Ca O4 145.46(3) . .
O3 Ca O4 70.12(4) . .
O3 Ca O4 129.81(4) 3_655 .
O1 Ca O4 81.17(4) . 3_655
O1 Ca O4 110.71(4) 3_655 3_655
O5 Ca O4 145.46(3) . 3_655
O3 Ca O4 129.81(4) . 3_655
O3 Ca O4 70.12(4) 3_655 3_655
O4 Ca O4 69.08(5) . 3_655
C4 O1 Ca 148.43(11) . .
C2 N1 C6 124.95(11) . .
C2 N3 C4 124.92(12) . .
N3 C2 N1 115.54(12) . .
N3 C2 S 121.65(10) . .
N1 C2 S 122.81(10) . .
O1 C4 N3 116.35(13) . .
O1 C4 C5 126.50(13) . .
N3 C4 C5 117.15(12) . .
C6 C5 C4 120.11(13) . .
O2 C6 C5 126.83(13) . .
O2 C6 N1 116.00(12) . .
C5 C6 N1 117.17(12) . .
loop_
_geom_bond_atom_site_label_1
_geom_bond_atom_site_label_2
_geom_bond_distance
_geom_bond_site_symmetry_2
Ca O1 2.3238(11) .
Ca O1 2.3239(11) 3_655
Ca O5 2.3754(18) .
Ca O3 2.3921(13) .
Ca O3 2.3921(13) 3_655
Ca O4 2.4982(12) .
Ca O4 2.4982(12) 3_655
S C2 1.6845(14) .
O1 C4 1.2622(17) .
O2 C6 1.2703(16) .
N1 C2 1.3470(17) .
N1 C6 1.3937(18) .
N3 C2 1.3464(17) .
N3 C4 1.3911(18) .
C4 C5 1.394(2) .
C5 C6 1.3896(19) .
loop_
_geom_hbond_atom_site_label_D
_geom_hbond_atom_site_label_H
_geom_hbond_atom_site_label_A
_geom_hbond_distance_DH
_geom_hbond_distance_HA
_geom_hbond_distance_DA
_geom_hbond_angle_DHA
_geom_hbond_site_symmetry_A
N1 H1 O4 0.86 2.06 2.9168(15) 176 5_655
N3 H3 O6 0.86 1.99 2.8471(16) 172 3_655
O4 H41 O6 0.830(18) 2.038(18) 2.8256(15) 159.9(19) 1_555
O4 H42 O2 0.855(18) 1.885(18) 2.7316(15) 171.3(18) 7_556
O5 H51 O2 0.861(15) 1.964(16) 2.8086(16) 166.8(10) 5_665
O6 H61 O1 0.861(16) 2.177(17) 3.0078(17) 162.2(16) 6_556
O6 H62 O2 0.898(17) 1.909(18) 2.7963(15) 168.8(17) 2_555
O3 H31 S 0.840(18) 2.54(2) 3.3004(14) 151.2(17) 4_455
O3 H32 S 0.88(2) 2.37(2) 3.2521(14) 174.5(15) 5_655
