#------------------------------------------------------------------------------
#$Date: 2016-02-13 21:28:24 +0200 (Sat, 13 Feb 2016) $
#$Revision: 176429 $
#$URL: svn://www.crystallography.net/cod/cif/1/52/94/1529414.cif $
#------------------------------------------------------------------------------
#
# This file is available in the Crystallography Open Database (COD),
# http://www.crystallography.net/
#
# All data on this site have been placed in the public domain by the
# contributors.
#
data_1529414
loop_
_publ_author_name
N.N.Golovnev
'A.D. Vasiliev'
'M.S. Molokeev'
'I.I. Golovneva'
_publ_section_title
;
 Crystal structure of perchlorate hexakis-(ethylenethiourea) nickel (II)
;
_journal_issue                   8
_journal_name_full
'Izv.Vyssh.Uchebn.Zaved.,Khim.Khim.Tek.(Russ.)(Bull.Colleg.,Chem.,Chem.Technol.) '
_journal_page_first              134
_journal_page_last               136
_journal_volume                  48
_journal_year                    2005
_chemical_formula_sum            'C9 H18 Cl N6 Ni0.5 O4 S3'
_chemical_formula_weight         435.28
_space_group_crystal_system      monoclinic
_space_group_IT_number           14
_space_group_name_Hall           '-P 2yn'
_space_group_name_H-M_alt        'P 1 21/n 1'
_symmetry_space_group_name_Hall  '-P 2yn'
_symmetry_space_group_name_H-M   'P 1 21/n 1'
_atom_sites_solution_hydrogens   geom
_audit_creation_method           SHELXL-2014/7
_cell_angle_alpha                90
_cell_angle_beta                 95.394(4)
_cell_angle_gamma                90
_cell_formula_units_Z            4
_cell_length_a                   7.8691(5)
_cell_length_b                   25.946(2)
_cell_length_c                   8.2833(3)
_cell_measurement_temperature    293(2)
_cell_volume                     1683.73(18)
_computing_structure_refinement  'SHELXL-2014/7 (Sheldrick, 2014)'
_diffrn_ambient_temperature      293(2)
_diffrn_measured_fraction_theta_full 0.973
_diffrn_measured_fraction_theta_max 0.973
_diffrn_radiation_wavelength     1.54059
_diffrn_reflns_av_R_equivalents  0.0188
_diffrn_reflns_av_unetI/netI     0.0188
_diffrn_reflns_Laue_measured_fraction_full 0.973
_diffrn_reflns_Laue_measured_fraction_max 0.973
_diffrn_reflns_limit_h_max       8
_diffrn_reflns_limit_h_min       -8
_diffrn_reflns_limit_k_max       14
_diffrn_reflns_limit_k_min       -29
_diffrn_reflns_limit_l_max       9
_diffrn_reflns_limit_l_min       0
_diffrn_reflns_number            2624
_diffrn_reflns_point_group_measured_fraction_full 0.973
_diffrn_reflns_point_group_measured_fraction_max 0.973
_diffrn_reflns_theta_full        25.000
_diffrn_reflns_theta_max         59.999
_diffrn_reflns_theta_min         3.404
_exptl_absorpt_coefficient_mu    6.320
_exptl_crystal_density_diffrn    1.717
_exptl_crystal_F_000             900
_refine_diff_density_max         2.310
_refine_diff_density_min         -0.746
_refine_diff_density_rms         0.135
_refine_ls_extinction_coef       0.0062(8)
_refine_ls_extinction_expression Fc^*^=kFc[1+0.001xFc^2^\l^3^/sin(2\q)]^-1/4^
_refine_ls_extinction_method     'SHELXL-2014/7 (Sheldrick 2014'
_refine_ls_goodness_of_fit_ref   1.479
_refine_ls_hydrogen_treatment    refU
_refine_ls_matrix_type           full
_refine_ls_number_parameters     193
_refine_ls_number_reflns         2440
_refine_ls_number_restraints     0
_refine_ls_restrained_S_all      1.479
_refine_ls_R_factor_all          0.0766
_refine_ls_R_factor_gt           0.0699
_refine_ls_shift/su_max          0.188
_refine_ls_shift/su_mean         0.014
_refine_ls_structure_factor_coef Fsqd
_refine_ls_weighting_details
'w=1/[\s^2^(Fo^2^)+(0.0882P)^2^+3.5985P] where P=(Fo^2^+2Fc^2^)/3'
_refine_ls_weighting_scheme      calc
_refine_ls_wR_factor_gt          0.2032
_refine_ls_wR_factor_ref         0.2084
_reflns_Friedel_coverage         0.000
_reflns_Friedel_fraction_full    .
_reflns_Friedel_fraction_max     .
_reflns_number_gt                2173
_reflns_number_total             2440
_reflns_threshold_expression     'I > 2\s(I)'
_cod_data_source_file            C9H18ClN6Ni0p50O4S3.cif
_cod_data_source_block           a
_cod_original_formula_sum        'C9 H18 Cl N6 Ni0.50 O4 S3'
_cod_database_code               1529414
_cod_database_fobs_code          1529414
#BEGIN Tags that were not found in dictionaries:
_shelx_shelxl_version_number     2014/7
_shelx_space_group_comment
;
The symmetry employed for this shelxl refinement is uniquely defined
by the following loop, which should always be used as a source of
symmetry information in preference to the above space-group names.
They are only intended as comments.
;
_shelx_res_file
;

    NICLO4.res created by SHELXL-2014/7

TITL niclo4 in P2(1)/n
CELL 1.54059   7.8691  25.946   8.2833  90.00  95.394  90.00
ZERR    4.00   0.0005   0.002   0.0003   0.00   0.004   0.00
LATT  1
SYMM .5-X, .5+Y, .5-Z
SFAC Ni Cl O  C  N S  H
UNIT 2  4 16 36 24 12 72

L.S. 6
BOND
ACTA 50
FMAP 2
PLAN 20
OMIT 1 1 1
OMIT -1 0 5
DFIX 51 O1A CL O2A CL O3A CL O4A CL
DFIX 41 O1B CL O2B CL O3B CL O4B CL
EQIV $2 -X, -Y, 1-Z
HTAB
MPLA S1 NI S3_$2
MPLA 5 C31 N21 C51 C41 N11 S1 S3_$2
MPLA 5 C33 N23 C53 C43 N13 S3 S1_$2
MPLA S3 NI S1_$2
MPLA 5 C32 N22 C52 C42 N12 S2 S3
MPLA S2 NI S3
WGHT    0.088200    3.598500
EXTI    0.006211
FVAR       0.67294   0.54612   0.06918   1.43000   1.43000
NI    1    0.000000    0.000000    0.500000    10.50000    0.03283    0.03029 =
         0.03612   -0.00439    0.00656   -0.00296
S1    6    0.295557    0.032669    0.553558    11.00000    0.03394    0.04065 =
         0.04208   -0.00333    0.00610   -0.00485
N11   5    0.286709    0.028481    0.880907    11.00000    0.04486    0.04827 =
         0.04103    0.00343   -0.00157   -0.01238
AFIX  43
H11   7    0.216602    0.002985    0.876904    11.00000   31.00000
AFIX   0
N21   5    0.465240    0.083538    0.799224    11.00000    0.05308    0.05274 =
         0.04647    0.00707   -0.00350   -0.02125
AFIX  43
H21   7    0.517472    0.102195    0.733720    11.00000   31.00000
AFIX   0
C31   4    0.349102    0.049091    0.750639    11.00000    0.03096    0.02939 =
         0.04385    0.00095    0.00058    0.00401
C41   4    0.351473    0.054295    1.030137    11.00000    0.05230    0.05241 =
         0.04136   -0.00041    0.00043    0.00031
AFIX  23
H41A  7    0.393097    0.029646    1.112608    11.00000   31.00000
H41B  7    0.264356    0.075640    1.071896    11.00000   31.00000
AFIX   0
C51   4    0.496817    0.087001    0.975375    11.00000    0.05178    0.05187 =
         0.04715   -0.00218   -0.00766   -0.00978
AFIX  23
H51A  7    0.489998    0.122332    1.012496    11.00000   31.00000
H51B  7    0.607361    0.072793    1.013560    11.00000   31.00000
AFIX   0
S2    6   -0.120815    0.041689    0.729631    11.00000    0.04054    0.03346 =
         0.04314   -0.00629    0.01172   -0.00431
N12   5   -0.018980    0.123910    0.908929    11.00000    0.07078    0.03708 =
         0.03819   -0.00762    0.00938   -0.00105
AFIX  43
H12   7   -0.058781    0.111432    0.993887    11.00000   31.00000
AFIX   0
N22   5    0.040210    0.129933    0.659131    11.00000    0.05615    0.03234 =
         0.04039   -0.00342    0.00801   -0.00567
AFIX  43
H22   7    0.049281    0.121000    0.560328    11.00000   31.00000
AFIX   0
C32   4   -0.029422    0.100837    0.765878    11.00000    0.03612    0.03066 =
         0.04060   -0.00131    0.00298    0.00802
C42   4    0.099713    0.178891    0.728672    11.00000    0.09940    0.03150 =
         0.05650   -0.00363    0.00311   -0.01510
AFIX  23
H42A  7    0.034962    0.207418    0.678411    11.00000   31.00000
H42B  7    0.219864    0.184077    0.716256    11.00000   31.00000
AFIX   0
C52   4    0.069595    0.173678    0.903540    11.00000    0.06881    0.04052 =
         0.05159   -0.01199    0.00385   -0.00572
AFIX  23
H52A  7    0.176512    0.173281    0.972131    11.00000   31.00000
H52B  7   -0.000998    0.201573    0.937495    11.00000   31.00000
AFIX   0
S3    6   -0.051728    0.074777    0.297932    11.00000    0.04502    0.03421 =
         0.03891    0.00357    0.00752    0.00152
N13   5   -0.369433    0.097634    0.382087    11.00000    0.04832    0.03415 =
         0.06313    0.01113    0.01160    0.00570
AFIX  43
H13   7   -0.388497    0.066586    0.411944    11.00000   31.00000
AFIX   0
N23   5   -0.235946    0.161685    0.288684    11.00000    0.06617    0.02977 =
         0.06503    0.00879    0.01860    0.00004
AFIX  43
H23   7   -0.157334    0.178015    0.244371    11.00000   31.00000
AFIX   0
C33   4   -0.226153    0.112443    0.326216    11.00000    0.04723    0.03188 =
         0.03057    0.00102    0.00022   -0.00139
C43   4   -0.492689    0.139534    0.388015    11.00000    0.05883    0.04052 =
         0.05782    0.00144    0.00717    0.01401
AFIX  23
H43A  7   -0.523764    0.144887    0.497348    11.00000   31.00000
H43B  7   -0.595038    0.132969    0.316265    11.00000   31.00000
AFIX   0
C53   4   -0.392734    0.185626    0.329619    11.00000    0.07613    0.03758 =
         0.05971    0.00779    0.01016    0.01470
AFIX  23
H53A  7   -0.453343    0.201862    0.235658    11.00000   31.00000
H53B  7   -0.370637    0.211077    0.414785    11.00000   31.00000
AFIX   0
CL    2    0.107313    0.266764    1.328997    11.00000    0.06001    0.05453 =
         0.06108   -0.00354   -0.00014   -0.00582
O1AT  3   10.259850   10.254370   11.428520    21.00000    0.16123
O2AT  3   10.133770   10.311661   11.234929    21.00000    0.21792
O3AT  3   10.062750   10.225030   11.219930    21.00000    0.19369
O3BT  3   10.169821   10.221881   11.253449   -21.00000    0.19934
O2BT  3   10.143590   10.311690   11.238870   -21.00000    0.07197
O1BT  3   10.188641   10.271870   11.489789   -21.00000    0.14662
O4AT  3   -0.026876   10.275700   11.428710    21.00000    0.08680
O4BT  3   -0.045076   10.261600   11.334280   -21.00000    0.36229

HKLF 4

REM  niclo4 in P2(1)/n
REM R1 =  0.0699 for    2173 Fo > 4sig(Fo)  and  0.0766 for all    2440 data
REM    193 parameters refined using      0 restraints

END

WGHT      0.1342      6.9920

REM Instructions for potential hydrogen bonds
HTAB N11 S3_$2
EQIV $3 x+1/2, -y+1/2, z-1/2
HTAB N21 O2AT_$3
EQIV $4 x, y, z+1
HTAB N12 S3_$4
HTAB N22 S3
EQIV $5 x, y, z-1
HTAB C42 O1BT_$5
HTAB C42 O4BT_$3
HTAB C52 O3BT
EQIV $6 x-1/2, -y+1/2, z-1/2
HTAB C52 O1AT_$6
HTAB C52 O3AT
HTAB C52 O1BT_$6
EQIV $7 x-1, y, z
HTAB N13 S1_$7
HTAB N13 S1_$2
HTAB N23 O3AT_$5
HTAB N23 O4BT_$5
HTAB C43 O2AT_$6
EQIV $8 x-1/2, -y+1/2, z-3/2
HTAB C53 O1BT_$8
HTAB C53 O4AT_$8

REM Highest difference peak  2.310,  deepest hole -0.746,  1-sigma level  0.135
Q1    1  -0.0296  0.2500  1.1972  11.00000  0.05    2.31
Q2    1   0.2303  0.2301  1.3411  11.00000  0.05    1.32
Q3    1   0.1205  0.2085  1.3070  11.00000  0.05    1.08
Q4    1   0.0816  0.2901  1.4609  11.00000  0.05    0.97
Q5    1   0.2518  0.2633  1.4808  11.00000  0.05    0.72
Q6    1   0.1722  0.3191  1.2960  11.00000  0.05    0.69
Q7    1   0.2179  0.2868  1.2077  11.00000  0.05    0.69
Q8    1  -0.0754  0.2618  1.4067  11.00000  0.05    0.53
Q9    1  -0.0443  0.1393  0.5422  11.00000  0.05    0.25
Q10   1   0.1502  0.0134  0.8667  11.00000  0.05    0.25
Q11   1   0.4476  0.0065  0.5106  11.00000  0.05    0.24
Q12   1   0.0752  0.1908  0.7043  11.00000  0.05    0.23
Q13   1   0.0663  0.1589  0.6743  11.00000  0.05    0.23
Q14   1   0.1671  0.2054  0.6970  11.00000  0.05    0.23
Q15   1   0.3651  0.0008  0.5067  11.00000  0.05    0.23
Q16   1  -0.0062  0.0809  0.7404  11.00000  0.05    0.22
Q17   1   0.1024  0.0329  0.4576  11.00000  0.05    0.22
Q18   1   0.0739  0.1772  0.9531  11.00000  0.05    0.22
Q19   1  -0.0900  0.2081  0.9424  11.00000  0.05    0.21
Q20   1  -0.1594  0.0345  0.5051  11.00000  0.05    0.21
;
_shelx_res_checksum              62133
_shelx_hkl_file
;
  -2 -28   0   31.51    1.21
  -1 -28   0  153.56    5.75
   0 -28   0  268.83    7.55
   1 -28   0  154.21    5.82
   2 -28   0   32.87    1.39
   3 -27   0   28.96    1.19
   2 -27   0   23.77    1.03
   1 -27   0  301.97    8.41
  -1 -27   0  297.26    8.22
  -2 -27   0   24.67    1.02
  -3 -27   0   28.34    1.21
  -3 -26   0   60.60    2.44
  -2 -26   0   25.55    1.00
  -1 -26   0   78.61    3.46
   0 -26   0  821.57   14.22
   1 -26   0   77.00    3.03
   2 -26   0   22.13    0.99
   3 -26   0   60.87    2.47
   4 -25   0    6.26    2.22
   3 -25   0   14.20    0.92
   2 -25   0    6.10    2.18
   1 -25   0  410.17   10.38
  -1 -25   0  408.88   10.37
  -2 -25   0    0.32    2.16
  -3 -25   0   12.61    0.91
  -4 -25   0    6.70    0.74
  -5 -24   0   57.18    2.20
  -4 -24   0   86.50    3.47
  -3 -24   0  338.90    9.41
  -2 -24   0  141.37    5.55
  -1 -24   0    8.38    0.95
   0 -24   0  407.07   10.62
   1 -24   0   17.23    1.04
   2 -24   0  134.61    5.81
   3 -24   0  313.46    9.08
   4 -24   0   91.81    3.19
   5 -24   0   54.98    2.33
   5 -23   0   49.42    1.77
   4 -23   0   12.80    0.88
   3 -23   0   14.25    1.01
   2 -23   0  672.86   13.68
   1 -23   0  457.24   11.38
  -1 -23   0  449.06   11.29
  -2 -23   0  683.54   13.73
  -3 -23   0   13.41    1.01
  -4 -23   0    3.38    2.72
  -5 -23   0   51.29    2.12
  -5 -22   0    0.00    1.95
  -4 -22   0  204.91    7.74
  -3 -22   0   43.07    1.51
  -2 -22   0  467.81   11.53
  -1 -22   0  183.89    7.06
   0 -22   0  935.37   15.91
   1 -22   0  190.57    7.31
   2 -22   0  459.44   11.45
   3 -22   0   40.33    1.29
   4 -22   0  186.81    7.38
   5 -22   0    0.00    2.02
   6 -21   0   25.27    1.12
   5 -21   0  160.93    6.14
   4 -21   0   68.95    2.76
   3 -21   0    7.10    2.99
   2 -21   0    7.62    3.07
   1 -21   0  182.48    7.11
  -1 -21   0  168.38    6.96
  -2 -21   0   13.12    1.00
  -3 -21   0    9.30    0.95
  -4 -21   0   65.88    2.81
  -5 -21   0  160.78    6.08
  -6 -21   0   29.59    1.21
  -6 -20   0  183.08    6.39
  -5 -20   0  348.37    9.70
  -4 -20   0   26.65    1.15
  -3 -20   0  796.00   15.08
  -2 -20   0    3.57    2.86
  -1 -20   0    8.96    3.05
   0 -20   0  256.15    8.13
   1 -20   0    9.92    0.88
   2 -20   0    6.63    2.68
   3 -20   0  819.83   15.22
   4 -20   0   24.14    1.22
   5 -20   0  342.48    9.72
   6 -20   0  180.05    6.40
   6 -19   0   23.73    1.01
   5 -19   0  184.95    7.36
   4 -19   0   13.46    1.00
   3 -19   0   37.18    1.43
   2 -19   0  487.42   11.39
   1 -19   0  234.72    7.79
  -1 -19   0  235.03    7.79
  -2 -19   0  502.29   11.51
  -3 -19   0   37.91    1.66
  -4 -19   0    7.57    3.14
  -5 -19   0  217.20    8.08
  -6 -19   0   26.42    1.02
  -6 -18   0    3.39    2.82
  -5 -18   0   72.49    3.12
  -4 -18   0   18.87    1.17
  -3 -18   0    4.26    2.76
  -2 -18   0    6.79    0.87
  -1 -18   0   17.98    0.93
   0 -18   0   16.83    0.89
   1 -18   0   17.75    0.97
   2 -18   0    8.55    0.89
   3 -18   0    3.00    2.38
   4 -18   0   19.84    1.17
   5 -18   0   69.88    2.99
   6 -18   0    4.74    2.62
   7 -17   0   18.44    0.86
   6 -17   0  128.02    4.64
   4 -17   0  281.52    9.91
   3 -17   0  289.34    9.40
   2 -17   0  206.62    7.33
   1 -17   0  503.64   10.45
  -1 -17   0  496.34   10.35
  -2 -17   0  211.41    7.50
  -3 -17   0  335.79   10.01
  -4 -17   0  305.96   10.20
  -6 -17   0  116.76    4.90
  -7 -17   0   18.79    0.87
  -7 -16   0  220.69    7.20
  -6 -16   0   63.00    2.52
  -5 -16   0  174.58    7.17
  -4 -16   0   85.62    3.51
  -3 -16   0    6.66    2.88
  -2 -16   0 1772.05   20.37
  -1 -16   0  198.48    6.56
   0 -16   0   17.76    0.87
   1 -16   0  189.57    6.52
   2 -16   0 1637.54   19.57
   3 -16   0    5.38    2.78
   4 -16   0   79.44    2.81
   5 -16   0  176.25    6.70
   6 -16   0   59.97    2.79
   7 -16   0  210.70    6.98
   7 -15   0   80.21    3.27
   6 -15   0  289.14    9.55
   5 -15   0  379.04   10.97
   4 -15   0  289.68    9.58
   3 -15   0  107.45    4.59
   2 -15   0    6.98    3.17
   1 -15   0 1378.43   16.12
  -1 -15   0 1404.98   16.27
  -2 -15   0    5.39    0.97
  -3 -15   0  113.46    4.27
  -4 -15   0  280.21    9.59
  -5 -15   0  390.35   11.27
  -6 -15   0  259.78    8.99
  -7 -15   0   76.48    3.07
  -7 -14   0   11.07    0.89
  -6 -14   0  122.00    5.11
  -5 -14   0    2.48    2.81
  -4 -14   0 1038.00   16.88
  -3 -14   0  162.53    6.70
  -2 -14   0 3796.16   29.38
  -1 -14   0   43.99    1.57
   0 -14   0  871.02   11.98
   1 -14   0   29.23    1.20
   2 -14   0 3401.10   27.86
   3 -14   0  158.63    6.38
   4 -14   0 1027.99   16.79
   5 -14   0    0.00    3.03
   6 -14   0  120.10    4.80
   7 -14   0    9.97    0.90
   7 -13   0  104.84    4.22
   6 -13   0  548.56   12.83
   5 -13   0 1293.93   19.15
   4 -13   0   37.28    1.37
   3 -13   0    4.37    2.66
   2 -13   0  371.46    9.46
   1 -13   0   40.07    1.50
  -1 -13   0   36.53    1.46
  -2 -13   0  386.65    9.61
  -3 -13   0    2.16    2.49
  -4 -13   0   34.43    1.48
  -5 -13   0 1278.08   19.06
  -6 -13   0  530.77   12.56
  -7 -13   0  117.81    4.60
  -8 -12   0    0.00    1.96
  -7 -12   0    3.80    2.43
  -6 -12   0    0.00    2.70
  -5 -12   0  146.93    5.92
  -4 -12   0  722.98   13.11
  -3 -12   0    8.42    0.79
  -2 -12   0 2202.19   20.77
  -1 -12   0  223.54    6.34
   0 -12   0    0.72    1.85
   1 -12   0  206.71    6.22
   2 -12   0 2078.42   20.11
   3 -12   0   20.50    0.93
   4 -12   0  722.95   13.06
   5 -12   0  143.97    5.42
   6 -12   0    3.78    2.65
   7 -12   0    1.66    2.63
   8 -12   0    0.00    1.73
   8 -11   0  142.99    5.55
   7 -11   0   62.87    2.32
   6 -11   0    6.69    2.48
   5 -11   0  526.83   11.70
   4 -11   0  482.38   10.26
   3 -11   0  140.01    5.45
   2 -11   0   12.18    0.85
   1 -11   0  924.56   12.20
  -1 -11   0  983.33   12.56
  -2 -11   0    2.83    2.54
  -3 -11   0  140.66    5.43
  -4 -11   0  519.29   10.74
  -5 -11   0  490.73   11.40
  -6 -11   0    1.00    2.59
  -7 -11   0   57.02    2.42
  -8 -11   0  147.83    5.62
  -8 -10   0    1.64    2.26
  -7 -10   0  386.11   10.39
  -6 -10   0  203.67    7.67
  -5 -10   0  364.61    9.76
  -4 -10   0  764.56   12.43
  -3 -10   0  416.90    8.44
  -2 -10   0 2031.32   17.29
   0 -10   0  173.27    4.74
   2 -10   0 1955.92   16.92
   3 -10   0  414.56    8.41
   4 -10   0  743.94   12.26
   5 -10   0  380.49    9.83
   6 -10   0  208.62    7.89
   7 -10   0  383.28   10.38
   8 -10   0    0.00    2.05
   8  -9   0  177.54    6.49
   7  -9   0   71.88    2.78
   6  -9   0   57.35    2.42
   5  -9   0 1811.49   20.45
   4  -9   0 1798.76   18.26
   3  -9   0  604.69    9.59
   2  -9   0 1674.12   14.62
   1  -9   0   34.27    1.38
  -1  -9   0   37.60    1.69
  -2  -9   0 1729.42   14.87
  -3  -9   0  631.84    9.85
  -4  -9   0 1850.22   18.53
  -5  -9   0 1857.83   20.67
  -6  -9   0   60.52    2.66
  -7  -9   0   74.71    3.34
  -8  -9   0  173.80    6.39
  -8  -8   0   88.39    3.44
  -7  -8   0  109.78    4.39
  -6  -8   0  102.52    4.26
  -5  -8   0   44.72    2.00
  -4  -8   0 2103.72   19.11
  -3  -8   0    4.18    1.82
  -2  -8   0  798.70    9.57
  -1  -8   0 3253.17   19.13
   0  -8   0   13.33    0.77
   1  -8   0 2976.24   18.30
   2  -8   0  789.94    9.47
   3  -8   0    3.06    1.84
   4  -8   0 2053.37   18.90
   5  -8   0   46.70    1.79
   6  -8   0  108.99    4.10
   7  -8   0  113.15    4.37
   8  -8   0   87.58    3.38
   8  -7   0  164.89    6.18
   7  -7   0  285.41    9.12
   6  -7   0  199.42    7.60
   5  -7   0  110.27    4.33
   4  -7   0 1554.33   15.95
   3  -7   0   63.16    2.64
   2  -7   0 2021.96   14.08
   1  -7   0 2777.02   16.01
  -1  -7   0 3021.78   16.75
  -2  -7   0 2091.82   14.34
  -3  -7   0   58.30    2.65
  -4  -7   0 1542.25   15.94
  -5  -7   0  110.04    4.23
  -6  -7   0  216.82    7.86
  -7  -7   0  280.88    9.06
  -8  -7   0  157.12    6.22
  -8  -6   0   10.77    0.87
  -7  -6   0  277.99    9.19
  -6  -6   0  182.77    7.10
  -5  -6   0   89.73    3.69
  -4  -6   0  240.60    6.31
  -3  -6   0 3330.29   19.54
  -2  -6   0 1250.58   10.49
  -1  -6   0  998.22    8.82
   0  -6   0 1789.44   11.50
   1  -6   0  983.09    8.76
   2  -6   0 1238.32   10.45
   3  -6   0 3269.19   19.35
   4  -6   0  250.63    6.53
   5  -6   0  100.75    4.09
   6  -6   0  182.05    7.11
   7  -6   0  270.43    9.09
   8  -6   0    7.61    2.98
   8  -5   0   19.73    0.98
   7  -5   0  583.68   12.78
   6  -5   0  316.74    9.06
   5  -5   0    0.32    2.00
   4  -5   0    5.41    1.86
   3  -5   0  529.26    7.71
   2  -5   0 4080.14   17.71
   1  -5   0   37.70    1.59
  -1  -5   0   40.37    1.81
  -2  -5   0 4336.10   52.87
  -3  -5   0  566.68    7.97
  -4  -5   0    6.17    0.65
  -5  -5   0    0.84    1.97
  -6  -5   0  304.96    8.85
  -7  -5   0  598.69   13.01
  -8  -5   0   19.09    1.03
  -8  -4   0   59.61    2.39
  -7  -4   0   14.30    1.06
  -6  -4   0    6.08    0.83
  -5  -4   0  208.13    6.56
  -4  -4   0  430.62    7.95
  -3  -4   0 3170.30   17.86
  -2  -4   0 1929.07   11.63
  -1  -4   0 1440.43    8.54
   0  -4   0 1827.94    9.80
   1  -4   0 1366.88    8.31
   2  -4   0 1899.66   11.55
   3  -4   0 3262.20   18.11
   4  -4   0  441.57    8.08
   5  -4   0  207.59    6.61
   6  -4   0    4.19    2.54
   7  -4   0    2.43    3.70
   8  -4   0   60.74    2.31
   8  -3   0   12.53    0.88
   7  -3   0  674.74   13.70
   6  -3   0  112.41    4.56
   5  -3   0  463.66    9.50
   4  -3   0   71.57    2.81
   3  -3   0 1011.48    9.93
   2  -3   0 8636.00   67.34
   1  -3   0  724.20    5.54
  -1  -3   0  740.76    5.61
  -2  -3   0 8765.09   67.92
  -3  -3   0 1016.81    9.97
  -4  -3   0   54.69    2.43
  -5  -3   0  438.11    9.27
  -6  -3   0   99.71    4.11
  -7  -3   0  687.49   13.90
  -8  -3   0   15.71    0.90
  -8  -2   0    5.07    2.20
  -7  -2   0   48.94    1.90
  -6  -2   0  693.09   13.08
  -5  -2   0   27.16    1.10
  -4  -2   0  608.98    9.15
  -3  -2   0  454.01    6.65
  -2  -2   0    0.00    1.61
  -1  -2   0  982.19    5.81
   0  -2   0 1255.37    6.00
   1  -2   0  963.96    5.77
   2  -2   0    0.00    1.70
   3  -2   0  454.46    6.68
   4  -2   0  624.58    9.26
   5  -2   0   24.19    1.08
   6  -2   0  679.38   12.91
   7  -2   0   52.43    2.16
   8  -2   0    7.35    2.52
   8  -1   0   45.79    2.06
   7  -1   0  111.98    4.36
   6  -1   0  667.68   12.70
   5  -1   0  281.11    7.38
   4  -1   0   22.82    0.93
   3  -1   0 4136.01   19.33
   2  -1   0 2677.29   12.40
   1  -1   0 1881.83   21.31
  -1  -1   0 1850.30   21.15
  -2  -1   0 2552.14   12.07
  -3  -1   0 4083.44   19.21
  -4  -1   0   22.21    0.94
  -5  -1   0  278.43    7.39
  -6  -1   0  622.39   12.35
  -7  -1   0  113.52    4.52
  -8  -1   0   51.21    1.97
  -8   0   0  160.54    5.90
  -6   0   0   36.67    1.40
  -4   0   0  431.68    7.69
  -2   0   0 5061.82   48.43
   2   0   0 5101.51   48.66
   4   0   0  414.75    7.57
   6   0   0   37.61    1.61
   8   0   0  166.07    6.54
   0 -29   1  259.26    6.65
   2 -28   1    6.35    2.13
   1 -28   1    2.56    2.26
   0 -28   1    1.45    2.13
  -1 -28   1   25.26    1.00
  -2 -28   1    5.47    1.85
  -3 -27   1  102.31    3.93
  -2 -27   1    4.76    0.71
  -1 -27   1   31.53    1.05
   0 -27   1  347.43    8.87
   1 -27   1  116.03    4.29
   2 -27   1   36.50    1.46
   3 -27   1    0.85    1.83
   3 -26   1  354.96    8.39
   2 -26   1  112.56    4.58
   1 -26   1  339.75    9.05
   0 -26   1  102.77    4.14
  -1 -26   1   69.26    2.68
  -2 -26   1   54.60    1.90
  -3 -26   1    4.33    2.03
  -4 -25   1  126.74    5.01
  -3 -25   1    9.03    0.80
  -2 -25   1    6.60    2.48
  -1 -25   1  545.91   11.84
   0 -25   1   88.22    3.19
   1 -25   1   52.31    2.06
   2 -25   1   12.50    0.94
   3 -25   1    2.34    2.27
   4 -25   1    7.70    0.73
   4 -24   1    0.00    2.09
   3 -24   1  113.78    4.61
   2 -24   1  327.32    9.28
   1 -24   1  107.91    4.30
   0 -24   1  116.34    4.43
  -1 -24   1   98.87    3.93
  -2 -24   1    5.14    2.83
  -3 -24   1   81.54    3.01
  -4 -24   1   92.73    3.62
  -5 -24   1  224.19    6.35
  -5 -23   1   35.30    1.45
  -4 -23   1    0.00    2.92
  -3 -23   1   11.22    0.96
  -2 -23   1   91.24    3.58
  -1 -23   1  374.75   10.12
   0 -23   1   75.05    2.85
   1 -23   1    7.74    2.80
   2 -23   1  471.26   11.24
   3 -23   1  126.96    5.22
   4 -23   1   10.81    0.88
   5 -23   1  150.47    5.73
   5 -22   1   66.16    3.18
   4 -22   1   42.62    2.08
   3 -22   1  132.94    5.64
   2 -22   1  230.74    8.47
   1 -22   1  746.91   14.15
   0 -22   1    7.36    2.92
  -1 -22   1   13.83    0.99
  -2 -22   1    4.42    2.61
  -3 -22   1    6.90    2.87
  -4 -22   1   62.03    2.61
  -5 -22   1    9.04    0.82
  -6 -21   1   30.45    1.18
  -5 -21   1   43.23    1.77
  -4 -21   1    4.92    2.63
  -3 -21   1    8.94    0.86
  -2 -21   1    2.69    2.73
  -1 -21   1  151.62    5.97
   0 -21   1   59.07    2.78
   1 -21   1  173.52    7.02
   2 -21   1  835.97   15.18
   3 -21   1   96.48    4.19
   4 -21   1  273.23    8.92
   5 -21   1   61.63    2.41
   6 -20   1   54.13    2.04
   5 -20   1  494.92   11.29
   4 -20   1    6.04    2.62
   3 -20   1  201.93    8.05
   2 -20   1  156.01    6.39
   1 -20   1  238.29    7.96
   0 -20   1 1293.18   17.90
  -1 -20   1    7.34    2.72
  -2 -20   1    5.83    2.46
  -3 -20   1   69.90    2.53
  -4 -20   1  277.26    9.08
  -5 -20   1    0.00    2.81
  -6 -20   1   27.79    1.06
  -6 -19   1   66.33    2.71
  -5 -19   1  269.48    8.93
  -4 -19   1  133.35    5.80
  -3 -19   1    9.29    3.20
  -2 -19   1   94.77    3.96
  -1 -19   1   92.07    3.93
   0 -19   1   89.43    3.59
   1 -19   1  532.36   11.62
   2 -19   1 1380.25   19.01
   3 -19   1  208.73    7.99
   4 -19   1  536.67   12.76
   5 -19   1   28.40    1.37
   6 -19   1    2.03    2.32
   6 -18   1   19.45    1.00
   5 -18   1  480.23   12.09
   4 -18   1   68.95    2.58
   3 -18   1  100.45    4.00
   2 -18   1   72.78    2.78
   1 -18   1  292.82    8.46
   0 -18   1  120.12    4.66
  -1 -18   1  156.04    6.23
  -2 -18   1    5.57    2.69
  -3 -18   1  255.60    8.87
  -4 -18   1  148.67    6.31
  -5 -18   1   41.55    2.01
  -6 -18   1   32.20    1.25
  -7 -17   1    2.07    2.08
  -6 -17   1   29.11    1.52
  -4 -17   1  290.16   10.21
  -3 -17   1   29.56    1.24
  -2 -17   1 1889.93   21.62
  -1 -17   1  411.94    9.72
   0 -17   1  143.70    5.22
   1 -17   1  332.82    8.73
   2 -17   1  102.45    4.28
   3 -17   1    0.00    3.15
   4 -17   1  213.35    8.34
   6 -17   1   42.79    1.69
   7 -17   1   24.35    1.09
   7 -16   1    2.22    2.22
   6 -16   1    9.96    3.34
   5 -16   1  132.07    5.39
   4 -16   1  507.34   13.08
   3 -16   1  802.77   15.52
   2 -16   1  318.47    9.15
   1 -16   1  228.90    7.19
   0 -16   1 1867.85   19.06
  -1 -16   1  117.86    4.92
  -2 -16   1  934.19   15.10
  -3 -16   1  563.07   12.97
  -4 -16   1  796.32   16.18
  -5 -16   1  347.83   10.97
  -6 -16   1   43.27    1.65
  -7 -16   1    9.08    0.78
  -7 -15   1   44.94    1.67
  -6 -15   1  197.14    7.99
  -5 -15   1  305.87   10.13
  -4 -15   1  218.30    8.73
  -3 -15   1   42.09    1.70
  -2 -15   1 3463.92   28.55
  -1 -15   1 1368.76   16.34
   0 -15   1  289.19    7.54
   1 -15   1  953.38   13.87
   2 -15   1  557.32   11.79
   3 -15   1   96.04    3.92
   4 -15   1   15.23    1.12
   5 -15   1    0.00    2.93
   6 -15   1   75.94    2.88
   7 -15   1    2.45    2.17
   7 -14   1   21.15    1.06
   6 -14   1   21.76    1.16
   5 -14   1  198.64    7.60
   4 -14   1   22.68    1.16
   3 -14   1  343.06    9.67
   2 -14   1   90.01    3.51
   1 -14   1 1531.88   16.86
   0 -14   1   91.81    3.63
  -1 -14   1  913.97   13.08
  -2 -14   1  417.59   10.42
  -3 -14   1 1464.39   19.41
  -4 -14   1    6.09    2.81
  -5 -14   1  637.37   13.99
  -6 -14   1    3.42    3.18
  -7 -14   1    0.70    2.31
  -7 -13   1    0.00    2.35
  -6 -13   1   14.81    1.03
  -5 -13   1   15.57    1.12
  -4 -13   1  825.78   14.67
  -3 -13   1   49.91    2.06
  -2 -13   1 5894.22   36.36
  -1 -13   1   27.60    0.98
   0 -13   1   79.82    3.08
   1 -13   1   30.49    1.20
   2 -13   1  197.25    7.07
   3 -13   1  182.56    6.68
   4 -13   1   57.21    2.01
   5 -13   1  191.85    7.86
   6 -13   1  263.93    9.06
   7 -13   1    1.08    2.33
   7 -12   1   23.46    1.06
   6 -12   1   43.17    1.99
   5 -12   1  353.80   10.22
   4 -12   1 1101.96   16.32
   3 -12   1  120.44    4.66
   2 -12   1  220.19    7.00
   1 -12   1  113.53    4.65
   0 -12   1  279.35    6.58
  -1 -12   1 2404.39   20.16
  -2 -12   1    3.70    2.73
  -3 -12   1 3175.16   25.55
  -4 -12   1  103.74    4.00
  -5 -12   1 1040.62   16.86
  -6 -12   1  169.76    6.87
  -7 -12   1    5.52    2.34
  -8 -12   1   78.96    3.05
  -8 -11   1   82.14    3.28
  -7 -11   1   42.47    1.85
  -6 -11   1   10.60    1.01
  -5 -11   1  282.29    8.78
  -4 -11   1  219.64    7.25
  -3 -11   1  395.66    8.84
  -2 -11   1 1882.54   18.06
  -1 -11   1 1364.34   15.20
   0 -11   1  414.72    7.66
   1 -11   1 2945.75   22.26
   2 -11   1    4.70    2.43
   3 -11   1  618.41   10.91
   4 -11   1   41.51    1.54
   5 -11   1    0.00    4.78
   6 -11   1   27.74    1.19
   7 -11   1  142.67    6.09
   8 -11   1   62.32    2.85
   8 -10   1   29.76    1.47
   7 -10   1  223.00    7.97
   6 -10   1   47.03    1.97
   5 -10   1 1450.43   19.11
   4 -10   1  161.01    6.10
   3 -10   1   77.31    2.97
   2 -10   1   14.58    0.82
   0 -10   1 3472.68   20.56
  -2 -10   1  499.13    8.83
  -3 -10   1 2767.26   21.46
  -4 -10   1  767.30   12.48
  -5 -10   1  280.82    8.54
  -6 -10   1  156.06    6.47
  -7 -10   1  215.00    8.06
  -8 -10   1  109.46    4.36
  -8  -9   1    2.77    2.21
  -7  -9   1    1.30    2.19
  -6  -9   1   46.15    1.84
  -5  -9   1  112.92    4.84
  -4  -9   1    4.84    2.41
  -3  -9   1  430.46    8.24
  -2  -9   1  494.91    8.19
  -1  -9   1   21.04    0.93
   0  -9   1   20.69    0.83
   1  -9   1 3575.33   22.75
   2  -9   1   31.24    1.19
   3  -9   1  949.95   12.32
   4  -9   1  317.68    8.09
   5  -9   1   27.88    1.13
   6  -9   1  868.69   15.62
   7  -9   1   71.40    2.56
   8  -9   1  136.21    5.47
   8  -8   1    5.44    2.30
   7  -8   1   13.84    1.00
   6  -8   1  105.61    4.30
   5  -8   1  357.32    9.40
   4  -8   1   41.93    1.79
   3  -8   1 1149.39   12.94
   2  -8   1 1133.04   11.74
   1  -8   1  849.07   10.39
   0  -8   1 1107.92   10.82
  -1  -8   1    0.00    2.49
  -2  -8   1   85.17    3.43
  -3  -8   1  242.19    6.05
  -4  -8   1 1086.07   13.88
  -5  -8   1   86.38    3.32
  -6  -8   1   91.38    3.65
  -7  -8   1    2.37    2.78
  -8  -8   1   18.80    0.94
  -8  -7   1  100.73    4.41
  -7  -7   1   27.03    1.13
  -6  -7   1   73.50    3.09
  -5  -7   1 1197.81   16.09
  -4  -7   1  150.04    5.27
  -3  -7   1  413.13    7.38
  -2  -7   1 1033.22   10.33
  -1  -7   1 1755.85   13.06
   0  -7   1 3017.51   16.78
   1  -7   1 1327.23   11.82
   2  -7   1 1186.48   11.33
   3  -7   1  654.39    9.41
   4  -7   1 1163.69   14.27
   5  -7   1 1152.39   16.08
   6  -7   1  431.14   10.93
   7  -7   1   73.79    2.74
   8  -7   1   54.18    1.88
   8  -6   1  211.82    7.15
   7  -6   1  623.01   13.25
   6  -6   1  175.09    7.13
   5  -6   1  298.24    8.24
   4  -6   1  805.24   11.63
   3  -6   1  669.23    9.26
   2  -6   1 3275.34   17.64
   1  -6   1 2482.99   14.65
   0  -6   1 4134.45   18.72
  -1  -6   1   36.01    1.19
  -2  -6   1  402.20    6.26
  -3  -6   1    9.71    0.65
  -4  -6   1  905.55   11.97
  -5  -6   1    5.84    2.62
  -6  -6   1   81.67    3.28
  -7  -6   1    1.94    2.84
  -8  -6   1   41.58    2.00
  -8  -5   1   72.61    2.75
  -7  -5   1  211.76    8.06
  -6  -5   1   61.95    2.45
  -5  -5   1  151.82    5.72
  -4  -5   1  818.68   11.19
  -3  -5   1   52.53    2.12
  -2  -5   1  721.71    7.81
  -1  -5   1 8060.35   66.21
   0  -5   1  350.40    5.74
   1  -5   1 2566.89   13.63
   2  -5   1  232.85    4.80
   3  -5   1 2187.29   15.98
   4  -5   1  765.36   11.10
   5  -5   1   74.57    2.97
   6  -5   1  829.23   14.78
   7  -5   1   41.34    1.73
   8  -5   1    3.93    2.51
   8  -4   1  240.70    7.75
   7  -4   1   10.44    1.00
   6  -4   1   22.69    1.11
   5  -4   1    3.57    2.10
   4  -4   1   24.26    1.19
   3  -4   1 2808.34   17.58
   2  -4   1  538.88    6.70
   1  -4   1 6422.05   56.68
  -1  -4   1   20.93    1.02
  -2  -4   1 1130.64    9.22
  -3  -4   1   58.30    2.30
  -4  -4   1   21.21    0.79
  -5  -4   1    6.07    2.20
  -6  -4   1  464.90   10.86
  -7  -4   1 1112.90   17.55
  -8  -4   1   64.72    2.46
  -8  -3   1   58.73    2.09
  -7  -3   1   69.00    2.81
  -6  -3   1  309.64    9.11
  -5  -3   1  920.19   13.31
  -4  -3   1 1333.74   13.65
  -3  -3   1   44.99    1.70
  -2  -3   1  868.50    7.79
  -1  -3   1 4302.85   40.73
   0  -3   1 2216.04   11.62
   1  -3   1   19.23    0.82
   2  -3   1 4917.29   54.41
   3  -3   1 1018.07   10.44
   4  -3   1   59.87    2.52
   5  -3   1  391.84    9.04
   6  -3   1   35.30    1.56
   7  -3   1  522.82   12.11
   8  -3   1   35.20    1.21
   8  -2   1  128.59    5.11
   7  -2   1  120.49    4.46
   6  -2   1    2.89    2.88
   5  -2   1    1.79    2.16
   4  -2   1    9.14    0.68
   3  -2   1 2158.38   14.82
   2  -2   1 1304.33    9.57
   1  -2   1  146.53    3.01
   0  -2   1 1229.29    7.39
  -1  -2   1 3904.70   36.24
  -2  -2   1  463.46    5.65
  -3  -2   1 1339.23   11.35
  -4  -2   1  407.79    7.64
  -5  -2   1  195.62    6.44
  -6  -2   1  263.58    8.24
  -7  -2   1  675.96   13.70
  -8  -2   1    2.84    2.53
  -8  -1   1    5.70    2.44
  -7  -1   1  109.22    4.57
  -6  -1   1  712.16   13.19
  -5  -1   1    1.14    2.09
  -4  -1   1 1469.89   14.05
  -3  -1   1  674.17    8.01
  -2  -1   1  913.66    7.59
  -1  -1   1  592.55    4.89
   0  -1   1 2151.84   25.18
   1  -1   1  217.50    3.32
   2  -1   1  925.57    7.95
   3  -1   1  137.18    4.04
   4  -1   1    8.75    0.64
   5  -1   1    5.08    0.77
   6  -1   1   77.62    2.94
   7  -1   1   14.85    1.03
   8  -1   1    0.65    2.14
   7   0   1   79.39    2.89
   5   0   1 1549.21   17.30
   3   0   1 1769.91   13.28
   1   0   1  539.40    4.79
  -1   0   1 5011.25   39.06
  -3   0   1  302.73    5.51
  -5   0   1 1793.06   18.13
  -7   0   1 1623.31   21.00
  -1 -28   2   25.30    1.10
   0 -28   2    5.93    2.14
   1 -28   2    0.00    1.97
   2 -27   2   49.63    2.14
   1 -27   2   84.47    3.35
   0 -27   2   23.13    0.95
  -1 -27   2    5.71    2.34
  -2 -27   2   46.19    1.93
  -3 -26   2   15.29    0.83
  -2 -26   2    6.46    2.18
  -1 -26   2   33.25    1.43
   0 -26   2   82.42    3.26
   1 -26   2    0.00    2.01
   2 -26   2    1.56    2.30
   3 -26   2    3.03    2.12
   3 -25   2  158.11    6.21
   2 -25   2  136.89    5.20
   1 -25   2    4.54    0.79
   0 -25   2   50.55    2.12
  -1 -25   2   21.57    1.09
  -2 -25   2   12.88    0.90
  -3 -25   2  147.12    5.38
  -4 -25   2   27.46    0.95
  -4 -24   2  376.46    9.06
  -3 -24   2   14.33    0.95
  -2 -24   2  220.00    7.65
  -1 -24   2  613.35   12.75
   0 -24   2    9.62    0.89
   1 -24   2   45.29    1.45
   2 -24   2    7.47    0.84
   3 -24   2    2.95    2.36
   4 -24   2   44.64    1.87
   4 -23   2   54.82    1.99
   3 -23   2  351.15    9.48
   2 -23   2   62.42    2.20
   1 -23   2   52.84    2.07
   0 -23   2   42.56    1.55
  -1 -23   2   35.02    1.27
  -2 -23   2  219.09    7.92
  -3 -23   2   84.70    3.41
  -4 -23   2  534.50   11.18
  -5 -23   2  236.51    6.83
  -5 -22   2   10.70    0.81
  -4 -22   2  574.82   12.06
  -3 -22   2   43.87    1.91
  -2 -22   2    2.60    2.77
  -1 -22   2  573.80   12.65
   0 -22   2    8.95    3.06
   1 -22   2    6.49    3.24
   2 -22   2  483.50   11.53
   3 -22   2    2.50    2.66
   4 -22   2  664.67   12.59
   5 -22   2   17.07    0.88
   5 -21   2  237.08    7.52
   4 -21   2   90.62    3.43
   3 -21   2    0.00    2.60
   2 -21   2  242.30    8.48
   1 -21   2  243.43    8.47
   0 -21   2   13.32    0.96
  -1 -21   2  280.84    9.08
  -2 -21   2  172.44    6.84
  -3 -21   2  121.57    5.09
  -4 -21   2   41.09    1.68
  -5 -21   2    3.13    2.23
  -6 -20   2   12.03    0.80
  -5 -20   2   10.26    0.90
  -4 -20   2    0.00    3.09
  -3 -20   2  112.90    4.45
  -2 -20   2  240.20    8.36
  -1 -20   2   29.54    1.18
   0 -20   2  125.51    4.42
   1 -20   2  971.71   16.00
   2 -20   2  659.48   13.52
   3 -20   2  111.32    4.84
   4 -20   2  187.42    7.44
   5 -20   2  220.44    7.47
   6 -19   2  321.29    8.03
   5 -19   2  270.11    8.65
   4 -19   2   66.43    3.11
   3 -19   2  915.85   16.25
   2 -19   2  107.43    4.10
   1 -19   2  404.58   10.29
   0 -19   2  327.10    9.25
  -1 -19   2   35.05    1.47
  -2 -19   2  199.12    7.77
  -3 -19   2    0.00    2.60
  -4 -19   2   39.45    1.86
  -5 -19   2  155.47    6.45
  -6 -19   2  128.64    5.24
  -6 -18   2   31.17    1.33
  -5 -18   2   20.34    1.16
  -4 -18   2   54.33    2.08
  -3 -18   2  208.18    8.14
  -2 -18   2  729.78   13.93
  -1 -18   2   55.06    2.20
   0 -18   2   47.94    2.24
   1 -18   2  114.67    4.57
   2 -18   2 1223.48   18.08
   3 -18   2    0.19    2.50
   4 -18   2  243.23    8.99
   5 -18   2    2.04    3.17
   6 -18   2   10.38    0.85
   6 -17   2  135.34    5.53
   5 -17   2  113.69    4.55
   4 -17   2   32.84    1.64
   3 -17   2   36.32    1.40
   2 -17   2  343.92    9.83
   1 -17   2  503.29   11.06
   0 -17   2   47.85    2.11
  -1 -17   2 1194.40   16.69
  -2 -17   2   21.97    1.15
  -3 -17   2  157.11    6.66
  -4 -17   2   76.19    3.22
  -6 -17   2  310.29    9.32
  -7 -17   2    8.75    0.75
  -7 -16   2  106.47    4.16
  -6 -16   2   85.97    3.33
  -5 -16   2   72.44    2.60
  -4 -16   2   23.12    1.28
  -3 -16   2  167.33    7.12
  -2 -16   2  913.61   15.27
  -1 -16   2   27.80    1.24
   0 -16   2   21.54    1.06
   1 -16   2  595.32   11.65
   2 -16   2   51.74    2.06
   3 -16   2    9.06    3.45
   4 -16   2   10.76    3.69
   5 -16   2  521.40   13.00
   6 -15   2   72.60    3.00
   5 -15   2   95.64    3.89
   4 -15   2   87.21    3.28
   3 -15   2   74.49    2.87
   2 -15   2  117.94    4.79
   1 -15   2  872.82   13.62
   0 -15   2  220.24    6.84
  -1 -15   2   28.75    1.04
  -2 -15   2  158.22    6.16
  -3 -15   2   19.92    1.16
  -4 -15   2  175.82    6.55
  -5 -15   2 1113.43   18.72
  -6 -15   2  173.86    6.68
  -7 -15   2  176.48    6.40
  -7 -14   2    3.12    2.50
  -6 -14   2  213.25    8.47
  -5 -14   2  224.70    8.67
  -4 -14   2    0.00    2.70
  -3 -14   2   26.54    1.13
  -1 -14   2   43.02    1.77
   0 -14   2  567.88   10.32
   1 -14   2  236.80    7.40
   2 -14   2   15.21    1.03
   3 -14   2    8.86    3.37
   4 -14   2  272.04    9.24
   5 -14   2    7.53    3.11
   6 -14   2   27.91    1.18
   7 -14   2   30.80    1.12
   7 -13   2  109.71    4.47
   6 -13   2   71.36    2.84
   5 -13   2   19.84    1.15
   4 -13   2  239.00    8.43
   3 -13   2  929.74   15.55
   1 -13   2  344.49    8.40
   0 -13   2  419.46    8.69
  -1 -13   2  410.18    9.24
  -2 -13   2  235.28    7.92
  -3 -13   2   79.94    3.19
  -4 -13   2    1.03    2.76
  -5 -13   2   16.62    1.07
  -6 -13   2    5.54    3.03
  -7 -13   2    5.32    2.19
  -7 -12   2    8.03    2.89
  -6 -12   2  271.11    9.01
  -5 -12   2    7.15    2.74
  -4 -12   2  303.76    8.81
  -3 -12   2  170.08    6.49
  -2 -12   2  282.65    7.90
  -1 -12   2  604.99   11.04
   0 -12   2    0.59    1.99
   1 -12   2   26.47    1.13
   2 -12   2  185.98    6.92
   3 -12   2  425.38   10.14
   4 -12   2   29.39    1.15
   5 -12   2   15.09    1.07
   6 -12   2   26.45    1.21
   7 -12   2   25.81    1.07
   7 -11   2   56.74    2.41
   6 -11   2  568.47   12.87
   5 -11   2  247.85    8.49
   4 -11   2   22.90    1.04
   3 -11   2    0.21    2.47
   2 -11   2    4.04    2.63
   1 -11   2  901.61   12.83
   0 -11   2  321.15    7.27
  -2 -11   2  494.85    9.76
  -3 -11   2   97.56    3.48
  -4 -11   2   16.96    0.94
  -5 -11   2   48.06    1.95
  -6 -11   2  283.44    9.34
  -7 -11   2   19.74    1.07
  -8 -11   2   24.34    0.95
  -8 -10   2  183.94    6.22
  -7 -10   2   67.22    2.70
  -6 -10   2  109.47    4.43
  -5 -10   2    1.80    2.43
  -4 -10   2   12.20    0.85
  -3 -10   2  292.03    7.47
  -2 -10   2 1115.56   13.45
  -1 -10   2  390.33    8.55
   0 -10   2  739.55   10.43
   1 -10   2 1397.02   15.90
   2 -10   2  216.59    6.54
   3 -10   2    0.96    2.51
   4 -10   2   14.95    0.90
   5 -10   2  785.01   14.53
   6 -10   2   26.21    1.26
   7 -10   2   96.02    3.85
   7  -9   2  140.35    5.44
   6  -9   2  639.54   13.63
   5  -9   2    2.83    2.74
   4  -9   2   68.37    2.47
   3  -9   2  168.94    5.81
   2  -9   2  105.50    4.42
   0  -9   2  650.77    9.59
  -1  -9   2 2489.98   19.26
  -2  -9   2  220.42    5.94
  -3  -9   2  473.39    9.00
  -4  -9   2   20.65    0.92
  -5  -9   2   40.53    1.65
  -6  -9   2  932.72   16.11
  -7  -9   2    5.19    2.52
  -8  -9   2   36.26    1.34
  -8  -8   2   27.43    1.14
  -7  -8   2  103.84    3.85
  -6  -8   2  129.80    5.21
  -5  -8   2  179.16    6.76
  -4  -8   2   17.97    0.98
  -3  -8   2 1004.37   12.43
  -2  -8   2 1282.70   12.86
  -1  -8   2 3026.56   19.50
   0  -8   2 3500.50   21.41
   1  -8   2  471.84    8.99
   2  -8   2  773.06   10.66
   3  -8   2    5.85    0.71
   4  -8   2  136.95    5.44
   5  -8   2   22.40    1.07
   6  -8   2   34.17    1.32
   7  -8   2   21.45    1.02
   8  -8   2   19.59    0.86
   8  -7   2   18.38    0.87
   7  -7   2    8.06    2.86
   6  -7   2  614.37   13.11
   5  -7   2   67.86    2.40
   4  -7   2   16.59    0.89
   3  -7   2 1958.56   17.34
   2  -7   2    0.00    2.03
   1  -7   2 3177.96   20.91
   0  -7   2 2777.87   19.08
  -1  -7   2 1437.71   12.48
  -2  -7   2   65.31    2.55
  -3  -7   2  209.30    5.66
  -4  -7   2  414.28    8.78
  -5  -7   2  268.54    8.00
  -6  -7   2  890.86   15.49
  -7  -7   2  132.51    5.57
  -8  -7   2    6.19    0.80
  -8  -6   2   38.14    1.72
  -7  -6   2   94.54    3.28
  -6  -6   2  117.82    4.85
  -5  -6   2   54.27    2.31
  -4  -6   2   39.40    1.52
  -3  -6   2  711.43    9.72
  -2  -6   2 3461.07   18.89
  -1  -6   2 1458.44   11.67
   0  -6   2 2871.89   19.18
   1  -6   2 1824.09   14.77
   2  -6   2 2050.69   15.45
   3  -6   2  375.83    7.55
   4  -6   2 1056.14   14.02
   5  -6   2  323.62    9.00
   6  -6   2  599.41   12.99
   7  -6   2    0.00    2.88
   8  -6   2    3.67    2.19
   8  -5   2   97.29    4.08
   7  -5   2  203.35    7.74
   6  -5   2    4.28    2.85
   5  -5   2  381.39    9.35
   4  -5   2 1095.28   13.99
   3  -5   2 1362.71   13.66
   2  -5   2   28.68    1.23
   1  -5   2 2928.43   17.38
   0  -5   2   35.57    1.78
  -1  -5   2 1055.15    9.38
  -2  -5   2 1461.14   11.83
  -3  -5   2  975.23   11.02
  -4  -5   2  406.93    8.31
  -5  -5   2    1.84    2.06
  -6  -5   2  450.26   10.97
  -7  -5   2   25.15    1.13
  -8  -5   2   93.86    3.34
  -8  -4   2    0.29    2.22
  -7  -4   2   38.09    1.72
  -6  -4   2   24.34    1.19
  -5  -4   2  105.68    4.59
  -4  -4   2 1678.50   16.18
  -3  -4   2  426.34    7.24
  -2  -4   2 1200.54   10.41
  -1  -4   2 2354.35   13.07
   0  -4   2 1080.14   10.11
   1  -4   2   76.24    3.23
   2  -4   2 1032.90   10.28
   3  -4   2  165.04    5.02
   4  -4   2 2545.56   21.02
   5  -4   2   25.88    1.16
   6  -4   2  246.57    8.41
   7  -4   2   79.55    3.04
   8  -4   2   60.00    2.22
   8  -3   2   48.66    2.01
   7  -3   2   20.70    1.11
   6  -3   2  200.96    7.52
   5  -3   2  349.22    8.92
   4  -3   2   60.40    2.48
   3  -3   2 2510.39   17.73
   2  -3   2 1101.04   10.26
   1  -3   2  520.71    6.64
   0  -3   2    5.80    2.34
  -1  -3   2  277.93    4.60
  -2  -3   2 5733.81   63.09
  -3  -3   2 1485.95   12.99
  -4  -3   2 3157.51   21.89
  -5  -3   2  341.91    8.54
  -6  -3   2    2.35    2.60
  -7  -3   2  326.70    9.78
  -8  -3   2    6.43    2.59
  -8  -2   2    0.00    2.37
  -7  -2   2  137.97    5.28
  -6  -2   2   97.34    3.62
  -5  -2   2  398.61    9.04
  -4  -2   2 1890.82   16.78
  -3  -2   2   34.20    1.46
  -2  -2   2  153.70    3.92
  -1  -2   2  928.07    7.76
   0  -2   2 2521.49   13.62
   1  -2   2 3350.32   15.43
   2  -2   2  572.04    7.28
   3  -2   2   15.31    0.72
   4  -2   2    0.92    1.96
   5  -2   2    3.07    2.39
   6  -2   2  200.32    7.82
   7  -2   2   92.11    3.98
   8  -2   2    1.91    2.21
   8  -1   2    0.00    2.01
   7  -1   2   80.13    3.27
   6  -1   2  318.89    9.35
   5  -1   2    0.28    2.18
   4  -1   2   64.11    2.59
   3  -1   2  684.89    9.18
   2  -1   2 1308.40   10.72
   1  -1   2 3954.61   46.42
   0  -1   2 6522.11   58.44
  -1  -1   2    5.05    1.92
  -2  -1   2    9.39    0.61
  -3  -1   2 2126.37   15.09
  -4  -1   2    2.53    2.06
  -5  -1   2  394.36    8.99
  -6  -1   2    3.64    3.11
  -7  -1   2  610.67   13.11
  -8  -1   2  108.25    3.87
  -8   0   2   63.71    2.57
  -6   0   2 2921.86   26.75
  -4   0   2 5066.88   27.04
  -2   0   2 2737.10   14.68
   0   0   2 5160.99   47.96
   2   0   2  715.99    7.97
   4   0   2  935.00   12.31
   6   0   2    0.83    2.41
   8   0   2  118.69    4.81
  -2 -27   3    5.60    2.17
  -1 -27   3   15.57    0.81
   0 -27   3    1.31    2.09
   1 -27   3    6.07    2.09
   2 -26   3  168.59    5.78
   1 -26   3  188.63    6.44
   0 -26   3   56.60    2.44
  -1 -26   3    4.57    2.20
  -2 -26   3    1.63    2.21
  -3 -26   3   32.11    1.43
  -3 -25   3   85.21    3.28
  -2 -25   3  130.53    5.42
  -1 -25   3   49.31    1.98
   0 -25   3   21.21    0.99
   1 -25   3   16.23    0.93
   2 -25   3    5.63    2.15
   3 -25   3   10.98    0.72
   3 -24   3   10.44    0.79
   2 -24   3   10.21    0.86
   1 -24   3    1.45    2.37
   0 -24   3  539.03   11.71
  -1 -24   3   18.00    1.01
  -2 -24   3  147.91    5.48
  -3 -24   3   83.72    3.10
  -4 -24   3   78.59    3.38
  -4 -23   3  207.06    6.89
  -3 -23   3  246.45    7.97
  -2 -23   3  283.67    8.79
  -1 -23   3  143.19    5.74
   0 -23   3    2.57    2.61
   1 -23   3  270.56    8.70
   2 -23   3  124.83    5.12
   3 -23   3  382.59    9.40
   4 -23   3  118.90    4.76
   4 -22   3  251.05    7.64
   3 -22   3    0.00    2.69
   2 -22   3   10.53    0.91
   1 -22   3   13.17    0.99
   0 -22   3  591.39   12.67
  -1 -22   3  286.02    9.00
  -2 -22   3   27.13    1.32
  -3 -22   3  398.34   10.48
  -4 -22   3    5.14    2.87
  -5 -22   3  267.99    7.32
  -5 -21   3    6.19    2.39
  -4 -21   3  111.93    4.52
  -3 -21   3  339.83    9.91
  -2 -21   3  907.70   15.80
  -1 -21   3   28.61    1.22
   0 -21   3  291.99    9.32
   1 -21   3    6.00    2.46
   2 -21   3    2.94    2.74
   3 -21   3  302.35    9.15
   4 -21   3   91.33    3.78
   5 -21   3    0.00    2.09
   5 -20   3   14.63    0.87
   4 -20   3  271.86    8.56
   3 -20   3   22.18    1.13
   2 -20   3   34.52    1.37
   1 -20   3  918.63   15.81
   0 -20   3  127.94    5.39
  -1 -20   3  618.55   13.19
  -2 -20   3  108.11    4.79
  -3 -20   3  676.26   13.86
  -4 -20   3   29.08    1.24
  -5 -20   3  198.43    7.14
  -6 -20   3  186.00    5.92
  -6 -19   3  150.34    5.86
  -5 -19   3   60.56    2.35
  -4 -19   3  205.88    8.09
  -3 -19   3    0.00    3.31
  -2 -19   3 2208.04   24.81
  -1 -19   3  613.94   12.84
   0 -19   3    0.00    2.58
   1 -19   3   46.91    2.01
   2 -19   3   89.49    3.73
   3 -19   3  108.12    4.09
   4 -19   3  310.99    9.49
   5 -19   3   24.47    1.07
   6 -18   3   20.90    0.89
   5 -18   3   29.94    1.17
   4 -18   3   24.24    1.14
   3 -18   3   22.40    1.17
   2 -18   3  839.01   15.27
   1 -18   3  949.36   15.82
   0 -18   3  571.11   12.17
  -1 -18   3    7.96    0.95
  -2 -18   3   59.42    2.39
  -3 -18   3  727.75   14.92
  -4 -18   3  268.27    9.31
  -5 -18   3  400.51   10.79
  -6 -18   3   24.70    1.09
  -6 -17   3  227.70    7.93
  -5 -17   3   27.13    1.28
  -4 -17   3  267.75    9.69
  -3 -17   3    7.03    3.12
  -2 -17   3 1136.89   17.77
  -1 -17   3  961.19   15.63
   0 -17   3  125.28    5.00
   1 -17   3  292.80    9.00
   2 -17   3  567.56   12.67
   3 -17   3  296.68    9.66
   4 -17   3  100.39    3.91
   5 -17   3   33.04    1.36
   6 -17   3   11.26    0.81
   6 -16   3  102.54    3.93
   3 -16   3   19.43    1.21
   2 -16   3  123.75    4.94
   1 -16   3 1282.72   17.69
   0 -16   3  445.95   10.37
  -1 -16   3  133.71    5.43
  -2 -16   3  460.13   11.53
  -4 -16   3  506.86   13.14
  -5 -16   3  105.18    4.04
  -7 -16   3    0.58    1.99
  -6 -15   3  351.49   10.16
  -5 -15   3  336.48   10.69
  -4 -15   3  136.75    5.81
  -3 -15   3   44.76    1.95
  -2 -15   3   26.78    1.27
  -1 -15   3   24.67    1.08
   0 -15   3  309.65    8.50
   1 -15   3   54.88    2.44
   2 -15   3   36.25    1.54
   4 -15   3 1118.08   19.07
   5 -15   3   18.15    1.17
   6 -15   3    6.67    2.40
   6 -14   3    0.00    2.71
   5 -14   3  347.40   10.60
   4 -14   3   42.01    1.75
   3 -14   3    0.00    2.99
   2 -14   3   35.06    1.44
   1 -14   3 1080.96   15.61
   0 -14   3  441.06    9.79
  -1 -14   3  582.63   11.86
  -2 -14   3  564.83   12.81
  -3 -14   3  288.27    9.25
  -4 -14   3  441.22   11.57
  -5 -14   3  150.42    6.06
  -6 -14   3    5.43    2.90
  -7 -14   3   12.56    0.86
  -7 -13   3    1.40    2.27
  -6 -13   3  352.31   10.44
  -5 -13   3  266.61    9.05
  -4 -13   3 1209.48   18.33
  -3 -13   3    0.00    2.66
  -2 -13   3   53.92    2.23
  -1 -13   3  733.41   13.33
   0 -13   3  388.12    9.08
   1 -13   3    4.89    2.87
   2 -13   3 1055.96   17.10
   3 -13   3   46.54    2.14
   4 -13   3   20.72    1.19
   5 -13   3   88.73    3.62
   6 -13   3   76.54    3.18
   7 -13   3    6.30    0.70
   7 -12   3    4.05    2.09
   6 -12   3   40.71    1.35
   5 -12   3  424.61   11.37
   4 -12   3   15.28    1.06
   3 -12   3   39.81    1.64
   2 -12   3 2543.53   25.98
   1 -12   3 1625.21   18.43
   0 -12   3   22.96    0.96
  -2 -12   3  217.96    7.33
  -3 -12   3    9.64    0.87
  -4 -12   3   96.37    4.37
  -5 -12   3  108.37    4.28
  -6 -12   3   11.32    1.12
  -7 -12   3  117.42    4.47
  -7 -11   3  305.47    9.18
  -6 -11   3 1583.84   21.29
  -5 -11   3   33.58    1.24
  -4 -11   3  377.85    9.80
  -3 -11   3  314.19    8.50
  -2 -11   3   58.90    1.97
  -1 -11   3 1733.92   19.34
   0 -11   3   23.05    1.02
   1 -11   3   27.96    1.14
   2 -11   3 1723.84   20.51
   3 -11   3   40.86    1.61
   4 -11   3  360.19   10.01
   5 -11   3  469.75   11.75
   6 -11   3   43.01    1.79
   7 -11   3    3.97    2.19
   7 -10   3    2.20    2.32
   6 -10   3  224.70    8.13
   5 -10   3   19.82    1.15
   4 -10   3  181.56    7.15
   3 -10   3   55.70    2.16
   2 -10   3  263.28    8.13
   1 -10   3 1188.69   15.20
   0 -10   3  225.19    6.61
  -1 -10   3 1189.62   14.99
  -2 -10   3  467.91    9.31
  -3 -10   3   33.43    1.46
  -4 -10   3   70.24    2.83
  -5 -10   3   24.01    1.11
  -6 -10   3  970.13   16.75
  -7 -10   3  187.78    7.33
  -8 -10   3    0.12    1.81
  -8  -9   3   34.12    1.44
  -7  -9   3  198.62    7.62
  -6  -9   3  435.51   11.41
  -5  -9   3   96.56    3.98
  -4  -9   3   18.90    0.92
  -3  -9   3 4576.34   28.86
  -2  -9   3  210.24    6.09
  -1  -9   3  356.64    7.90
   0  -9   3 1602.23   17.18
   1  -9   3  237.37    7.16
   2  -9   3 1966.73   19.62
   3  -9   3   77.06    3.02
   4  -9   3   75.97    3.13
   5  -9   3   86.31    3.48
   6  -9   3  128.95    4.89
   7  -9   3   56.16    2.18
   7  -8   3    0.00    2.32
   6  -8   3  119.64    5.17
   5  -8   3  132.22    5.23
   4  -8   3  291.76    8.48
   3  -8   3  619.59   11.15
   2  -8   3 1541.73   16.68
   1  -8   3  340.33    8.52
  -1  -8   3  515.98    8.81
  -2  -8   3  540.10    9.07
  -3  -8   3 1454.53   15.85
  -4  -8   3  620.38   11.44
  -5  -8   3  731.07   13.59
  -6  -8   3  183.20    6.78
  -7  -8   3  202.29    7.70
  -8  -8   3  244.91    7.27
  -8  -7   3    2.95    2.37
  -7  -7   3  122.84    4.82
  -6  -7   3  305.66    9.35
  -5  -7   3    3.48    2.52
  -4  -7   3  775.41   12.51
  -3  -7   3   93.30    3.89
  -2  -7   3  259.36    6.26
  -1  -7   3 2518.13   17.94
   0  -7   3 1531.48   16.14
   1  -7   3    1.60    2.90
   2  -7   3  421.00    8.49
   3  -7   3  699.97   11.51
   4  -7   3   10.28    0.93
   5  -7   3    5.86    2.99
   6  -7   3   59.71    2.54
   7  -7   3    0.91    2.71
   7  -6   3   36.78    1.61
   6  -6   3  170.84    6.81
   5  -6   3  155.22    6.44
   4  -6   3 2528.30   23.30
   3  -6   3  378.71    8.42
   2  -6   3   45.02    1.90
   1  -6   3 1157.64   14.14
   0  -6   3    7.00    2.53
  -1  -6   3 2951.79   18.45
  -2  -6   3  472.01    7.89
  -3  -6   3  788.27   11.05
  -4  -6   3   46.43    1.95
  -5  -6   3   33.01    1.38
  -6  -6   3  174.51    7.02
  -7  -6   3  147.10    6.02
  -8  -6   3  461.51   10.02
  -8  -5   3   28.96    1.14
  -7  -5   3   58.39    2.53
  -6  -5   3    8.08    2.88
  -5  -5   3  589.95   11.66
  -4  -5   3 1297.03   15.42
  -3  -5   3  195.34    5.61
  -2  -5   3  798.85    9.90
  -1  -5   3  715.71    8.86
   0  -5   3 3280.03   20.64
   1  -5   3  163.20    5.41
   2  -5   3  500.12    8.53
   3  -5   3  134.57    5.10
   4  -5   3   11.55    0.96
   5  -5   3    5.37    2.65
   6  -5   3  218.99    8.08
   7  -5   3  197.61    7.23
   7  -4   3   32.46    1.19
   6  -4   3   16.06    1.09
   5  -4   3  247.82    8.12
   4  -4   3 1132.16   15.08
   3  -4   3 1569.25   15.81
   2  -4   3    6.38    2.31
   1  -4   3  438.94    7.84
   0  -4   3  281.78    6.18
  -1  -4   3 1514.78   12.27
  -2  -4   3  759.80    9.38
  -3  -4   3 1210.12   13.03
  -4  -4   3   77.46    3.28
  -5  -4   3  780.10   13.25
  -6  -4   3    4.78    2.56
  -7  -4   3   13.40    0.96
  -8  -4   3  426.74    9.82
  -8  -3   3   80.82    3.29
  -7  -3   3   32.34    1.35
  -6  -3   3  183.38    7.23
  -5  -3   3   86.96    3.56
  -4  -3   3 1797.14   17.69
  -3  -3   3   11.92    0.71
  -2  -3   3  504.03    7.57
  -1  -3   3  599.11    7.71
   0  -3   3 4243.58   21.99
   1  -3   3 3074.72   18.67
   2  -3   3  297.88    6.34
   3  -3   3 1799.02   16.66
   4  -3   3  675.23   11.58
   5  -3   3   58.01    2.40
   6  -3   3  878.50   15.49
   7  -3   3    0.00    2.70
   8  -3   3   11.60    0.76
   8  -2   3   83.62    3.42
   7  -2   3  485.31   11.27
   6  -2   3   68.79    2.52
   5  -2   3    7.45    2.65
   4  -2   3  774.37   12.30
   3  -2   3  962.55   12.08
   2  -2   3    8.40    0.64
   1  -2   3  186.39    4.84
   0  -2   3    0.00    3.22
  -1  -2   3 2440.46   15.18
  -2  -2   3    1.02    1.77
  -3  -2   3   46.69    1.84
  -4  -2   3  753.06   11.46
  -5  -2   3   82.57    3.25
  -6  -2   3   42.12    1.75
  -7  -2   3   86.69    3.18
  -8  -2   3  121.96    4.81
  -8  -1   3   82.25    3.26
  -7  -1   3   10.94    0.95
  -6  -1   3  268.68    8.45
  -5  -1   3   90.98    3.70
  -4  -1   3 1439.03   15.57
  -3  -1   3  543.47    8.63
  -2  -1   3    0.84    1.82
  -1  -1   3  302.11    5.95
   0  -1   3  477.06    6.59
   1  -1   3 1285.26   11.22
   2  -1   3   61.23    2.39
   3  -1   3  183.36    5.55
   4  -1   3  119.49    4.70
   5  -1   3  103.70    4.26
   6  -1   3 1315.56   18.82
   7  -1   3   36.04    1.56
   8  -1   3   39.19    1.73
   7   0   3  812.09   14.42
   5   0   3  673.40   12.75
   3   0   3  838.69   11.22
   1   0   3 2675.61   15.85
  -1   0   3  298.71    6.35
  -3   0   3 1404.30   13.64
  -5   0   3    0.89    2.11
  -7   0   3  320.45    9.52
  -1 -26   4   45.10    1.76
   0 -26   4  251.33    6.93
   2 -25   4   25.15    0.94
   1 -25   4   30.84    1.26
   0 -25   4  564.84   10.73
  -1 -25   4   60.95    2.37
  -2 -25   4    1.85    2.02
  -3 -24   4   98.27    3.78
  -2 -24   4    0.33    2.04
  -1 -24   4  126.03    4.93
   0 -24   4  329.26    8.82
   1 -24   4    0.00    2.31
   2 -24   4   42.18    1.78
   3 -23   4   16.18    0.80
   2 -23   4    5.24    2.43
   1 -23   4   10.28    0.87
   0 -23   4  129.70    5.72
  -1 -23   4  115.54    4.58
  -2 -23   4   36.85    1.48
  -3 -23   4   12.26    0.84
  -4 -23   4  159.32    5.59
  -4 -22   4    2.59    1.91
  -3 -22   4  170.34    6.74
  -2 -22   4  233.72    7.88
  -1 -22   4  110.19    4.22
   0 -22   4  175.61    6.88
   1 -22   4   35.95    1.39
   2 -22   4  110.85    4.62
   3 -22   4   16.33    0.88
   4 -22   4    3.33    2.12
   4 -21   4    0.67    2.04
   3 -21   4   10.64    0.86
   2 -21   4   65.57    2.74
   1 -21   4  171.60    6.64
   0 -21   4   63.54    2.96
  -1 -21   4  337.68    9.69
  -2 -21   4    8.84    0.97
  -3 -21   4  107.90    4.74
  -4 -21   4   12.60    0.85
  -5 -21   4   42.25    1.75
  -5 -20   4   14.72    0.86
  -4 -20   4  100.50    4.29
  -3 -20   4  269.35    8.90
  -2 -20   4  303.71    9.49
  -1 -20   4  135.95    5.38
   0 -20   4  341.30    9.89
   1 -20   4  235.80    8.21
   2 -20   4    0.00    2.40
   3 -20   4  111.02    4.78
   4 -20   4    4.19    2.28
   5 -19   4   68.69    3.05
   4 -19   4   60.59    2.41
   3 -19   4  131.81    5.14
   2 -19   4  256.02    8.72
   1 -19   4   35.68    1.47
   0 -19   4   34.85    1.28
  -1 -19   4  129.08    5.20
  -2 -19   4  112.83    4.52
  -3 -19   4 1674.92   21.83
  -4 -19   4   19.20    1.04
  -5 -19   4   99.87    4.16
  -6 -18   4  378.92    8.52
  -5 -18   4   70.80    2.79
  -4 -18   4  115.81    4.94
  -3 -18   4   97.99    4.03
  -2 -18   4  263.65    9.09
  -1 -18   4   55.92    2.03
   0 -18   4  209.23    7.86
   1 -18   4    1.05    2.59
   2 -18   4    9.96    0.99
   3 -18   4    5.88    3.09
   4 -18   4    9.62    0.91
   5 -18   4    2.37    2.12
   5 -17   4   50.64    2.09
   4 -17   4  203.71    7.78
   3 -17   4  239.81    8.59
   2 -17   4  680.85   13.99
   1 -17   4  800.72   14.82
   0 -17   4   20.94    1.11
  -1 -17   4  252.69    8.74
  -2 -17   4    7.12    3.34
  -3 -17   4   80.89    3.41
  -4 -17   4   20.78    1.18
  -5 -17   4   18.19    1.07
  -6 -17   4   72.16    2.96
  -5 -16   4  120.89    4.77
  -4 -16   4   70.76    2.63
  -2 -16   4   45.26    2.13
  -1 -16   4  906.03   15.84
   0 -16   4    6.02    0.86
   1 -16   4  430.99   10.92
   2 -16   4    2.73    2.91
   3 -16   4   16.27    1.20
   4 -16   4  199.09    8.16
   5 -16   4  137.28    5.05
   6 -15   4   81.62    3.44
   5 -15   4  308.62    9.48
   3 -15   4  144.60    5.93
   2 -15   4  458.27   11.56
   1 -15   4    1.33    2.97
   0 -15   4  271.71    8.58
  -1 -15   4  106.51    4.43
  -3 -15   4  723.27   15.40
  -4 -15   4   28.20    1.29
  -5 -15   4  153.49    6.29
  -6 -15   4   39.77    1.57
  -7 -14   4   82.00    3.67
  -6 -14   4   86.72    3.43
  -5 -14   4   87.16    3.58
  -4 -14   4   42.43    1.59
  -3 -14   4    9.68    1.05
  -2 -14   4   30.18    1.32
  -1 -14   4   43.64    1.74
   0 -14   4   11.21    0.94
   1 -14   4    5.16    3.31
   2 -14   4  280.03    9.25
   4 -14   4 1136.69   18.96
   5 -14   4    0.00    2.87
   6 -14   4    9.84    0.77
   6 -13   4    2.62    2.25
   5 -13   4  217.67    8.27
   4 -13   4    4.81    3.96
   3 -13   4  884.30   16.88
   2 -13   4    7.92    3.21
   1 -13   4 1548.45   19.35
   0 -13   4  317.24    9.00
  -2 -13   4   27.59    1.20
  -3 -13   4    0.00    2.87
  -4 -13   4   87.02    3.06
  -5 -13   4  125.89    5.04
  -6 -13   4   13.72    1.01
  -7 -13   4    0.82    2.33
  -7 -12   4  100.11    3.98
  -6 -12   4  112.73    4.91
  -5 -12   4  202.62    8.06
  -4 -12   4  315.65    9.72
  -3 -12   4    1.91    2.44
  -2 -12   4  442.93   10.85
  -1 -12   4    7.21    0.95
   0 -12   4  129.61    5.34
   1 -12   4   45.42    2.15
   2 -12   4  902.46   16.48
   3 -12   4   67.11    2.19
   4 -12   4 2576.07   27.65
   5 -12   4   36.79    1.75
   6 -12   4   24.55    1.03
   6 -11   4   44.57    1.95
   5 -11   4  266.68    9.12
   4 -11   4   29.95    1.54
   3 -11   4   49.52    2.02
   2 -11   4  404.58   11.33
   1 -11   4  744.51   13.15
   0 -11   4  229.82    7.70
  -1 -11   4   78.18    2.99
  -2 -11   4 1033.64   15.38
  -3 -11   4  379.30    9.80
  -4 -11   4    0.43    3.09
  -5 -11   4  340.62   10.12
  -6 -11   4    3.41    3.05
  -7 -11   4    0.00    2.37
  -7 -10   4   19.58    0.98
  -6 -10   4  355.48   10.11
  -5 -10   4  107.07    3.99
  -4 -10   4  526.50   11.78
  -3 -10   4    2.15    2.38
  -2 -10   4  533.32   10.76
  -1 -10   4  611.17   11.51
   0 -10   4    8.10    0.98
   1 -10   4  909.95   14.33
   2 -10   4 1645.10   21.15
   3 -10   4   12.15    1.04
   4 -10   4 1216.88   18.60
   5 -10   4    7.63    3.12
   6 -10   4    2.30    2.45
   7 -10   4   91.21    3.73
   7  -9   4    4.02    2.47
   6  -9   4  107.38    4.52
   5  -9   4    0.00    2.71
   4  -9   4    8.23    3.00
   3  -9   4  128.91    4.97
   2  -9   4 1941.83   21.96
   1  -9   4  591.12   11.63
   0  -9   4  113.98    4.45
  -1  -9   4   59.67    2.41
  -2  -9   4  586.90   10.87
  -3  -9   4   57.32    2.55
  -4  -9   4   79.20    3.26
  -5  -9   4  445.93   11.23
  -6  -9   4   69.97    3.05
  -7  -9   4  217.77    7.51
  -7  -8   4   30.46    1.30
  -6  -8   4  188.16    7.05
  -5  -8   4  489.87   11.64
  -4  -8   4 1262.20   17.20
  -3  -8   4  351.99    8.74
  -2  -8   4  559.19   10.37
  -1  -8   4   37.47    1.43
   0  -8   4 1132.29   15.85
   1  -8   4 1310.87   16.98
   2  -8   4   75.81    3.40
   3  -8   4    2.38    2.70
   4  -8   4   38.77    1.54
   5  -8   4   69.99    2.97
   6  -8   4    4.02    2.75
   7  -8   4  264.98    7.39
   7  -7   4   40.30    1.84
   6  -7   4  194.80    7.43
   5  -7   4  113.29    4.92
   4  -7   4  503.03   11.53
   3  -7   4   76.86    3.21
   2  -7   4  486.85   10.38
   1  -7   4   54.73    2.33
   0  -7   4    8.21    2.92
  -1  -7   4   30.37    1.02
  -2  -7   4  130.07    5.11
  -3  -7   4  949.21   13.63
  -4  -7   4  287.07    8.31
  -5  -7   4  957.50   15.83
  -6  -7   4    0.00    2.56
  -7  -7   4  229.33    7.85
  -8  -7   4   84.63    3.52
  -8  -6   4  301.85    7.70
  -7  -6   4   14.42    1.00
  -6  -6   4  254.76    8.57
  -5  -6   4    9.04    3.42
  -4  -6   4  152.72    5.93
  -3  -6   4 1449.24   16.34
  -2  -6   4   53.58    2.24
  -1  -6   4   24.21    1.05
   0  -6   4   32.53    1.18
   1  -6   4  454.03   10.39
   2  -6   4    0.00    2.55
   3  -6   4  700.12   12.36
   4  -6   4  205.07    7.51
   5  -6   4    0.00    2.59
   6  -6   4   34.35    1.50
   7  -6   4   75.87    3.09
   7  -5   4    0.00    2.07
   6  -5   4  110.70    4.69
   5  -5   4    0.00    2.57
   4  -5   4    0.00    2.74
   3  -5   4  689.09   12.04
   2  -5   4  349.15    8.31
   1  -5   4  186.51    6.55
   0  -5   4 1643.13   16.73
  -1  -5   4 1095.60   12.48
  -2  -5   4 2128.67   18.04
  -3  -5   4   29.57    1.23
  -4  -5   4    6.79    2.55
  -5  -5   4  319.68    9.15
  -6  -5   4  210.09    7.91
  -7  -5   4  265.98    8.45
  -8  -5   4  107.49    4.05
  -8  -4   4  151.82    5.69
  -7  -4   4   86.77    3.53
  -6  -4   4   45.12    1.44
  -5  -4   4   84.49    3.79
  -4  -4   4 1005.22   14.47
  -3  -4   4 1659.51   17.03
  -2  -4   4 2110.55   17.74
  -1  -4   4  198.38    5.56
   0  -4   4 1066.41   13.41
   1  -4   4  225.39    6.70
   2  -4   4   24.12    0.99
   3  -4   4   29.21    1.06
   4  -4   4  182.09    6.86
   5  -4   4  319.96    9.46
   6  -4   4  239.53    8.27
   7  -4   4    6.61    2.42
   7  -3   4   41.74    1.80
   6  -3   4    0.50    3.00
   5  -3   4   38.55    1.50
   4  -3   4  441.90   10.24
   3  -3   4  199.35    6.57
   2  -3   4 1059.29   13.26
   1  -3   4  138.07    5.21
   0  -3   4  801.77   12.36
  -1  -3   4 4174.49   23.48
  -2  -3   4  925.80   11.76
  -3  -3   4  258.98    7.00
  -4  -3   4 1335.96   16.42
  -5  -3   4   82.36    3.45
  -6  -3   4    9.83    0.90
  -7  -3   4   14.83    0.94
  -8  -3   4   63.76    2.51
  -8  -2   4  211.78    6.63
  -7  -2   4    4.73    0.79
  -6  -2   4   33.19    1.47
  -5  -2   4  195.55    7.25
  -4  -2   4   29.10    1.10
  -3  -2   4  217.38    6.30
  -2  -2   4   64.24    2.38
  -1  -2   4   56.80    2.28
   0  -2   4 1971.43   16.80
   1  -2   4  167.90    5.33
   2  -2   4 3538.60   23.57
   3  -2   4   27.71    1.20
   4  -2   4    3.00    2.67
   5  -2   4   25.55    1.17
   6  -2   4  431.11   10.94
   7  -2   4    6.96    2.55
   7  -1   4   40.72    1.39
   6  -1   4   37.53    1.72
   5  -1   4  191.75    7.40
   4  -1   4  357.64    9.26
   3  -1   4  479.85    9.64
   2  -1   4  809.44   11.34
   1  -1   4  221.88    5.87
   0  -1   4  281.76    6.27
  -1  -1   4 2178.52   18.73
  -2  -1   4    8.28    0.77
  -3  -1   4   29.95    1.27
  -4  -1   4    6.14    2.27
  -5  -1   4  483.93   10.86
  -6  -1   4  130.96    5.60
  -7  -1   4   37.34    1.57
  -8  -1   4    0.00    1.87
  -8   0   4   50.74    2.03
  -6   0   4  788.07   14.54
  -4   0   4   62.90    2.43
  -2   0   4   42.82    1.56
   0   0   4 2779.25   18.51
   2   0   4  898.65   11.84
   4   0   4    6.92    2.76
   6   0   4 1966.69   22.80
   1 -24   5  219.52    6.34
   0 -24   5    5.49    2.19
  -1 -24   5  159.21    5.58
  -2 -24   5    2.69    1.81
  -3 -23   5  118.55    4.54
  -2 -23   5    3.99    2.39
  -1 -23   5   48.97    2.17
   0 -23   5  145.94    5.68
   1 -23   5   62.96    2.49
   2 -23   5  114.03    4.60
   2 -22   5   48.92    2.12
   1 -22   5  179.46    6.46
   0 -22   5  156.88    6.20
  -1 -22   5   70.10    2.38
  -2 -22   5   11.02    0.81
  -3 -22   5   11.66    0.77
  -4 -21   5   47.09    1.75
  -3 -21   5   23.54    1.06
  -2 -21   5   70.35    2.74
  -1 -21   5    4.92    2.66
   0 -21   5  129.11    5.04
   1 -21   5    2.26    2.29
   2 -21   5   15.76    0.90
   3 -21   5   31.19    1.53
   3 -20   5    7.41    0.77
   2 -20   5   86.02    3.53
   1 -20   5    1.18    2.53
   0 -20   5  195.95    7.39
  -1 -20   5  232.65    8.14
  -2 -20   5    1.04    2.54
  -3 -20   5   98.77    4.14
  -4 -20   5    8.36    0.76
  -5 -19   5  258.42    7.01
  -4 -19   5    9.31    0.86
  -3 -19   5   79.50    3.27
  -2 -19   5    7.05    2.62
  -1 -19   5    1.87    3.07
   0 -19   5    6.51    0.94
   1 -19   5    0.74    2.30
   2 -19   5   25.49    1.08
   3 -19   5    4.26    2.18
   4 -19   5   39.81    1.55
   4 -18   5    0.00    2.39
   3 -18   5  168.93    6.71
   2 -18   5    7.51    0.88
   1 -18   5   48.06    1.73
   0 -18   5  602.76   12.99
  -1 -18   5    1.60    2.89
  -2 -18   5    1.53    2.86
  -3 -18   5   18.79    1.12
  -4 -18   5  273.36    8.50
  -5 -18   5    3.85    2.44
  -5 -17   5  311.42    8.62
  -4 -17   5   60.72    2.26
  -3 -17   5   86.06    3.60
  -2 -17   5  331.43   10.09
  -1 -17   5  200.82    7.88
   0 -17   5  174.88    7.03
   1 -17   5  132.80    5.23
   2 -17   5  115.70    4.93
   3 -17   5  161.31    6.04
   4 -17   5  334.41    9.00
   5 -16   5  127.33    5.20
   4 -16   5   74.52    2.87
   3 -16   5   13.86    1.04
   2 -16   5   40.82    1.76
   1 -16   5  410.62   10.96
   0 -16   5  174.86    6.85
  -1 -16   5   17.15    1.16
  -2 -16   5    6.92    3.24
  -6 -16   5  129.13    5.13
  -5 -15   5  167.95    6.97
  -4 -15   5    0.87    3.20
  -3 -15   5   28.25    1.47
  -1 -15   5  210.29    8.40
   0 -15   5  447.97   11.39
   1 -15   5   30.15    1.27
   2 -15   5    8.46    3.11
   3 -15   5   20.56    1.19
   4 -15   5  107.61    4.40
   5 -15   5   91.51    3.61
   3 -14   5  197.84    8.04
   2 -14   5    8.72    3.36
   1 -14   5  538.33   12.37
   0 -14   5   68.71    2.80
  -1 -14   5  421.82   11.71
  -2 -14   5  123.13    5.32
  -3 -14   5 1433.87   21.05
  -4 -14   5  163.60    7.13
  -5 -14   5  150.27    5.93
  -6 -14   5   17.41    0.94
  -6 -13   5  139.49    5.45
  -5 -13   5    7.11    2.84
  -4 -13   5   81.13    3.55
  -3 -13   5    1.99    3.23
  -2 -13   5  468.33   12.08
  -1 -13   5    6.71    3.41
   0 -13   5    6.97    3.00
   1 -13   5  127.66    4.89
   2 -13   5   22.11    1.26
   4 -13   5  531.88   12.91
   5 -13   5   17.65    1.01
   6 -12   5    2.24    1.99
   5 -12   5   72.15    2.85
   4 -12   5   77.34    3.26
   3 -12   5    1.44    3.39
   2 -12   5  172.86    6.82
   1 -12   5  249.00    8.56
   0 -12   5 1018.58   17.11
  -1 -12   5  531.31   12.63
  -2 -12   5  241.59    8.95
  -3 -12   5 1329.26   19.44
  -4 -12   5  452.76   11.71
  -5 -12   5   49.29    2.12
  -6 -12   5   51.36    2.23
  -7 -11   5    3.01    2.02
  -6 -11   5   26.37    1.09
  -5 -11   5  180.05    6.89
  -4 -11   5   95.83    3.65
  -3 -11   5   30.46    1.30
  -2 -11   5 2177.70   23.76
  -1 -11   5   76.62    3.15
   0 -11   5  271.36    9.17
   1 -11   5    2.65    3.12
   2 -11   5  410.04   11.66
   3 -11   5  173.05    6.85
   4 -11   5   47.92    1.49
   5 -11   5   22.79    1.11
   6 -11   5   30.51    1.10
   6 -10   5   80.50    3.11
   5 -10   5  208.06    7.95
   4 -10   5   95.02    3.43
   3 -10   5  148.25    5.74
   2 -10   5  702.04   15.05
   1 -10   5  263.61    8.84
  -1 -10   5   26.18    1.19
  -2 -10   5   46.44    1.63
  -3 -10   5  503.82   11.61
  -4 -10   5   29.26    1.36
  -5 -10   5  102.50    3.64
  -6 -10   5   34.86    1.58
  -7 -10   5    6.15    2.23
  -7  -9   5    5.17    2.33
  -6  -9   5   99.87    4.32
  -5  -9   5 1211.35   18.43
  -4  -9   5  122.95    4.83
  -3  -9   5  189.48    7.28
  -2  -9   5    8.03    3.01
  -1  -9   5   12.91    0.99
   0  -9   5  166.65    6.85
   1  -9   5  102.35    3.69
   2  -9   5   95.76    4.00
   3  -9   5   40.33    1.76
   4  -9   5  675.14   14.10
   5  -9   5   17.82    1.07
   6  -9   5  189.92    6.75
   6  -8   5    1.17    2.52
   5  -8   5  320.69    9.53
   4  -8   5   84.87    3.61
   3  -8   5    7.29    3.11
   2  -8   5   11.32    3.79
   1  -8   5    2.83    3.14
   0  -8   5  401.60   10.73
  -1  -8   5    7.36    2.93
  -2  -8   5  335.86    8.86
  -3  -8   5  371.65    9.79
  -4  -8   5  671.21   13.46
  -5  -8   5    7.63    3.49
  -6  -8   5   44.56    1.96
  -7  -8   5    2.79    2.47
  -7  -7   5    7.93    0.82
  -6  -7   5   14.17    1.00
  -5  -7   5  838.40   15.28
  -4  -7   5  193.89    7.54
  -3  -7   5  332.28    9.15
  -2  -7   5   84.93    3.51
  -1  -7   5   84.53    3.10
   0  -7   5  301.67    9.08
   1  -7   5  135.95    5.15
   2  -7   5    4.16    2.96
   3  -7   5    0.94    2.93
   4  -7   5   27.89    1.23
   5  -7   5    5.34    3.01
   6  -7   5  162.35    6.28
   6  -6   5   15.22    0.95
   5  -6   5   53.98    2.01
   4  -6   5  147.60    5.80
   3  -6   5  407.27   10.48
   2  -6   5  461.38   10.92
   1  -6   5  184.75    7.29
   0  -6   5  619.81   12.26
  -1  -6   5   23.88    1.03
  -2  -6   5    1.60    2.35
  -3  -6   5    2.28    2.76
  -4  -6   5    2.69    2.61
  -5  -6   5  340.63    9.96
  -6  -6   5    0.94    2.44
  -7  -6   5  136.35    5.39
  -7  -5   5  236.42    7.66
  -6  -5   5  227.32    8.24
  -5  -5   5  418.14   10.97
  -4  -5   5  155.02    6.07
  -3  -5   5  290.91    8.39
  -2  -5   5   75.49    3.12
  -1  -5   5  166.55    6.13
   0  -5   5  502.81   10.99
   1  -5   5  143.79    6.11
   2  -5   5  250.55    8.08
   3  -5   5  299.51    9.00
   4  -5   5    7.45    0.98
   5  -5   5  425.22   11.15
   6  -5   5   37.96    1.45
   6  -4   5    0.44    2.30
   5  -4   5   71.71    2.95
   4  -4   5  164.31    6.52
   3  -4   5   40.08    1.57
   2  -4   5  530.58   11.19
   1  -4   5  219.69    7.48
   0  -4   5  582.97   12.12
  -1  -4   5  175.55    6.13
  -2  -4   5  239.17    7.28
  -3  -4   5    0.00    2.76
  -4  -4   5   90.96    3.80
  -5  -4   5    6.08    0.97
  -6  -4   5    0.00    2.74
  -7  -4   5  237.18    7.66
  -7  -3   5   62.57    3.02
  -6  -3   5  180.52    6.81
  -5  -3   5   59.31    2.39
  -4  -3   5  293.64    8.95
  -3  -3   5  806.83   13.29
  -2  -3   5   20.13    1.01
  -1  -3   5  224.18    7.05
   0  -3   5  157.04    6.33
   1  -3   5  558.61   10.93
   2  -3   5 1118.92   15.62
   3  -3   5  405.94   10.13
   4  -3   5   40.60    1.39
   5  -3   5  168.10    6.37
   6  -3   5   39.30    1.57
   6  -2   5    2.98    2.26
   5  -2   5   23.79    1.13
   4  -2   5    9.42    1.03
   3  -2   5 1579.19   19.34
   2  -2   5  182.20    6.52
   1  -2   5  906.78   13.36
   0  -2   5  943.28   13.13
  -1  -2   5  888.33   13.81
  -2  -2   5  151.44    5.92
  -3  -2   5   26.88    1.10
  -4  -2   5    4.44    0.87
  -5  -2   5  285.67    9.16
  -6  -2   5   40.21    1.51
  -7  -2   5  467.34   10.57
  -7  -1   5   21.17    1.08
  -6  -1   5   51.89    1.83
  -5  -1   5   19.44    1.14
  -4  -1   5  396.95   10.01
  -3  -1   5  189.41    6.80
  -2  -1   5   12.21    0.99
  -1  -1   5    0.00    4.49
   0  -1   5 1773.97   17.60
   1  -1   5   10.10    1.01
   2  -1   5 1152.01   15.56
   3  -1   5    9.34    1.06
   4  -1   5    7.78    0.99
   5  -1   5  217.44    7.97
   6  -1   5    3.37    2.51
   5   0   5    6.52    0.93
   3   0   5  640.93   12.40
   1   0   5 4779.53   29.33
  -1   0   5 2094.00   16.75
  -3   0   5   16.50    0.99
  -5   0   5   31.96    1.24
  -7   0   5  153.36    6.28
  -1 -22   6    1.09    1.86
   0 -22   6    6.93    0.69
   1 -21   6  110.61    4.46
   0 -21   6   41.58    1.77
  -1 -21   6  134.01    5.07
  -2 -21   6  346.14    8.22
  -3 -20   6    1.24    2.00
  -2 -20   6    4.26    0.80
  -1 -20   6   36.90    1.48
   0 -20   6    0.41    2.08
   1 -20   6   20.43    0.93
   2 -20   6   33.39    1.27
   2 -19   6   19.50    0.93
   1 -19   6  327.67    8.76
   0 -19   6  320.01    8.89
  -1 -19   6    6.19    2.49
  -2 -19   6  131.75    5.42
  -3 -19   6    8.65    0.78
  -4 -19   6    1.05    1.77
  -4 -18   6   19.60    0.89
  -3 -18   6   81.42    3.35
  -2 -18   6   26.58    1.12
  -1 -18   6   11.28    0.92
   0 -18   6   53.46    2.16
   1 -18   6  187.25    7.10
   2 -18   6    3.68    2.57
   3 -18   6  246.27    7.04
   3 -17   6    3.74    2.25
   2 -17   6  145.25    6.09
   1 -17   6    5.14    2.84
   0 -17   6  245.69    8.35
  -1 -17   6   21.40    1.11
  -2 -17   6    4.98    2.92
  -3 -17   6  391.09   10.24
  -4 -17   6   47.86    1.83
  -5 -16   6   19.72    0.90
  -2 -16   6  129.82    5.61
  -1 -16   6  433.80   11.40
   0 -16   6  352.52   10.24
   1 -16   6   69.99    2.76
   2 -16   6    9.60    3.30
   3 -16   6    0.00    2.29
   4 -16   6   75.26    2.84
   4 -15   6    4.26    2.54
   3 -15   6   38.49    1.64
   2 -15   6  305.45    9.34
   1 -15   6  900.14   15.76
   0 -15   6  425.17   11.30
  -1 -15   6  272.14    9.48
  -3 -15   6  720.08   14.55
  -4 -15   6   56.18    2.13
  -5 -14   6    4.68    2.35
  -4 -14   6    1.21    2.47
  -3 -14   6  283.96    9.84
  -2 -14   6  661.81   14.58
  -1 -14   6   42.76    1.54
   0 -14   6  712.11   14.65
   1 -14   6  116.53    4.60
   2 -14   6    2.91    2.82
   3 -14   6   26.23    1.23
   4 -14   6    7.20    0.82
   3 -13   6    4.56    3.05
   2 -13   6   65.71    2.96
   1 -13   6  101.01    3.94
   0 -13   6    0.00    3.44
  -1 -13   6  124.16    4.89
  -2 -13   6    0.00    3.45
  -3 -13   6 1145.66   18.38
  -4 -13   6    4.20    2.62
  -5 -13   6    9.04    0.85
  -6 -13   6    4.76    2.49
  -6 -12   6  227.24    6.82
  -5 -12   6   14.68    0.96
  -4 -12   6   23.64    1.13
  -3 -12   6    0.00    2.90
  -2 -12   6 1364.35   20.13
  -1 -12   6    7.96    3.19
   0 -12   6  788.01   15.91
   1 -12   6    7.45    3.37
   2 -12   6  111.71    4.28
   4 -12   6    5.24    2.41
   5 -12   6   49.92    2.07
   5 -11   6   33.54    1.33
   4 -11   6   64.92    2.34
   3 -11   6  147.44    5.69
   2 -11   6    4.53    3.29
   1 -11   6  240.40    8.80
   0 -11   6  693.99   15.28
  -1 -11   6  115.65    4.35
  -2 -11   6   63.67    2.26
  -3 -11   6  225.91    8.15
  -4 -11   6   14.40    1.07
  -5 -11   6    8.44    3.01
  -6 -11   6   75.63    3.20
  -6 -10   6   12.69    0.82
  -5 -10   6  279.94    9.02
  -4 -10   6   10.96    1.00
  -3 -10   6    9.84    1.04
  -2 -10   6  428.11   11.28
  -1 -10   6  204.11    7.94
   0 -10   6  345.19   11.07
   1 -10   6    0.00    3.35
   2 -10   6  170.99    6.81
   3 -10   6  227.84    8.74
   4 -10   6   48.33    1.81
   5 -10   6   83.63    3.30
   5  -9   6   77.43    2.98
   4  -9   6  119.22    4.70
   3  -9   6   33.62    1.35
   2  -9   6  585.66   14.16
   1  -9   6  165.69    7.09
   0  -9   6 1326.28   20.43
  -1  -9   6    6.82    3.59
  -2  -9   6  217.51    7.99
  -3  -9   6   66.02    2.44
  -4  -9   6   67.03    2.45
  -5  -9   6    1.25    3.01
  -6  -9   6    1.18    2.19
  -6  -8   6   73.44    2.90
  -5  -8   6  329.95    9.57
  -4  -8   6  207.94    7.77
  -3  -8   6   72.46    2.84
  -2  -8   6    3.94    3.35
  -1  -8   6    1.16    3.21
   0  -8   6  639.49   14.30
   1  -8   6   66.23    2.50
   2  -8   6   53.49    2.18
   3  -8   6  190.02    7.59
   4  -8   6   78.58    3.45
   5  -8   6  321.68    8.74
   5  -7   6   94.94    3.92
   4  -7   6   94.32    4.23
   3  -7   6  243.58    8.89
   2  -7   6    8.79    1.16
   1  -7   6  311.18   10.13
   0  -7   6 1043.03   17.77
  -1  -7   6  393.42   10.28
  -2  -7   6  147.05    6.00
  -3  -7   6   37.67    1.34
  -4  -7   6  114.51    4.86
  -5  -7   6   30.35    1.23
  -6  -7   6    7.38    2.46
  -7  -6   6  389.68    8.47
  -6  -6   6    5.50    2.42
  -5  -6   6   49.21    2.04
  -4  -6   6   12.20    1.04
  -3  -6   6   76.87    3.25
  -2  -6   6    3.64    3.36
  -1  -6   6  106.28    4.07
   0  -6   6   77.13    2.87
   1  -6   6    7.48    3.80
   2  -6   6  289.41    9.71
   3  -6   6    5.64    2.95
   4  -6   6  271.32    8.92
   5  -6   6  271.63    8.37
   6  -5   6   29.73    1.26
   5  -5   6  339.72    9.40
   4  -5   6   91.33    3.82
   3  -5   6  493.55   12.05
   2  -5   6   31.08    1.41
   1  -5   6   16.38    1.27
   0  -5   6  109.91    4.51
  -1  -5   6  259.35    8.48
  -2  -5   6 2614.30   25.46
  -3  -5   6   70.33    3.05
  -4  -5   6    7.14    2.67
  -5  -5   6  275.24    8.98
  -6  -5   6   98.94    3.96
  -7  -5   6   28.46    1.00
  -7  -4   6  449.86    9.35
  -6  -4   6    3.20    2.45
  -5  -4   6   20.20    1.12
  -4  -4   6   95.32    3.52
  -3  -4   6  243.92    8.34
  -2  -4   6    0.00    3.63
  -1  -4   6  264.35    8.48
   0  -4   6  106.00    4.72
   1  -4   6   68.67    2.93
   2  -4   6 1342.68   19.04
   3  -4   6  358.45   10.29
   4  -4   6    0.25    2.88
   5  -4   6   57.10    2.41
   6  -4   6  102.21    3.93
   6  -3   6    6.74    0.73
   5  -3   6   26.64    1.10
   4  -3   6  248.83    8.64
   3  -3   6  316.37    9.72
   2  -3   6  734.85   14.07
   1  -3   6  104.43    4.07
   0  -3   6    7.17    1.13
  -1  -3   6  517.29   11.88
  -2  -3   6  553.87   12.12
  -3  -3   6    1.59    3.01
  -4  -3   6   85.14    3.35
  -5  -3   6  252.88    8.85
  -6  -3   6    5.47    2.39
  -7  -3   6   92.92    3.72
  -7  -2   6   29.87    1.06
  -6  -2   6  106.12    4.55
  -5  -2   6   51.45    2.23
  -4  -2   6 1936.15   22.99
  -3  -2   6   36.56    1.32
  -2  -2   6   69.12    2.63
  -1  -2   6   16.02    1.40
   0  -2   6  117.67    4.78
   1  -2   6  179.00    6.95
   2  -2   6  674.92   13.32
   3  -2   6   40.08    1.64
   4  -2   6   13.80    1.05
   5  -2   6   50.50    2.02
   6  -2   6   46.44    1.81
   6  -1   6    5.00    0.66
   5  -1   6   13.63    0.97
   4  -1   6    4.19    2.97
   3  -1   6  226.76    8.14
   2  -1   6   53.80    1.89
   1  -1   6  177.78    7.04
   0  -1   6   15.53    1.16
  -2  -1   6  320.96    9.80
  -3  -1   6   19.43    1.17
  -4  -1   6  129.54    4.95
  -5  -1   6 1352.50   19.31
  -6  -1   6   59.34    2.40
  -7  -1   6   91.23    3.81
  -6   0   6   72.17    3.07
  -4   0   6 1449.43   20.06
  -2   0   6  136.88    5.08
   0   0   6   31.51    1.44
   2   0   6  394.34   10.34
   4   0   6  203.47    7.71
   6   0   6   30.68    1.20
  -1 -19   7    1.03    1.94
   0 -19   7  152.62    5.36
   1 -18   7  202.24    6.17
   0 -18   7    1.32    2.15
  -1 -18   7    4.80    2.34
  -2 -18   7   27.19    0.97
  -3 -17   7   94.30    3.91
  -2 -17   7   21.97    0.99
  -1 -17   7   10.98    0.84
   0 -17   7  153.56    5.90
   1 -17   7    0.00    2.25
   2 -17   7    4.95    2.13
   2 -16   7    0.89    1.94
   1 -16   7   79.95    3.27
   0 -16   7   18.59    1.01
  -1 -16   7    6.75    2.53
  -2 -16   7    4.50    1.95
  -3 -16   7   96.15    3.35
  -1 -15   7   23.05    1.09
   0 -15   7  215.67    7.54
   1 -15   7   42.59    1.80
   2 -15   7    2.21    2.14
   3 -15   7    3.35    1.89
   3 -14   7   14.26    0.82
   2 -14   7   19.47    0.96
   1 -14   7   53.57    2.25
  -2 -14   7    1.61    2.62
  -3 -14   7   33.79    1.38
  -4 -14   7   28.28    1.10
  -4 -13   7    1.20    2.22
  -3 -13   7   34.62    1.45
   2 -13   7   47.63    1.76
   3 -13   7    3.27    2.24
   3 -12   7    4.32    2.33
   2 -12   7   15.60    1.03
  -3 -12   7    3.22    2.55
  -4 -12   7   89.78    3.36
  -5 -12   7    2.99    2.21
  -5 -11   7   26.78    1.04
  -4 -11   7   75.34    2.58
  -3 -11   7   82.45    3.16
  -1 -11   7  205.98    8.00
   0 -11   7  267.11    9.62
   4 -11   7    9.44    0.79
   4 -10   7  154.04    5.82
   3 -10   7   18.90    1.08
   1 -10   7   65.69    2.85
  -1 -10   7  130.34    5.50
  -2 -10   7    8.19    3.15
  -3 -10   7   64.29    2.52
  -4 -10   7   97.38    3.91
  -5 -10   7   20.53    0.95
  -5  -9   7  115.25    4.41
  -4  -9   7   87.12    3.63
  -2  -9   7  257.80    8.91
  -1  -9   7   15.58    1.18
   0  -9   7  674.19   14.88
   1  -9   7   27.66    1.33
   3  -9   7  195.92    7.58
   4  -9   7   14.92    0.88
   4  -8   7   38.16    1.41
   3  -8   7  202.45    7.67
   1  -8   7  770.27   15.30
   0  -8   7   88.31    3.30
  -1  -8   7  552.71   12.57
  -2  -8   7  255.11    8.85
  -4  -8   7  557.76   12.10
  -5  -8   7   12.21    0.89
  -6  -7   7   31.98    1.27
  -5  -7   7   22.83    0.99
  -4  -7   7    8.46    3.04
  -2  -7   7   67.95    2.97
  -1  -7   7  108.99    4.33
   0  -7   7  473.73   12.70
   1  -7   7   10.72    4.09
   3  -7   7   59.96    2.54
   4  -7   7   43.79    1.76
   4  -6   7   22.00    1.04
   3  -6   7   99.08    4.12
   2  -6   7   18.49    1.29
   1  -6   7   96.82    4.21
   0  -6   7    6.10    3.98
  -1  -6   7  522.24   12.19
  -2  -6   7  362.53   10.37
  -4  -6   7  247.11    8.44
  -5  -6   7    6.81    2.36
  -6  -6   7   10.55    0.73
  -6  -5   7   16.74    0.82
  -5  -5   7   44.35    1.80
  -4  -5   7   42.75    1.95
  -3  -5   7  241.67    8.58
  -2  -5   7  133.43    5.10
  -1  -5   7  212.21    8.20
   1  -5   7  137.29    5.68
   2  -5   7  383.23   10.82
   3  -5   7  349.53   10.03
   4  -5   7   34.02    1.42
   5  -4   7  139.92    5.34
   4  -4   7   45.63    1.93
   3  -4   7   44.76    1.89
   2  -4   7  126.55    5.20
   1  -4   7  161.02    7.05
   0  -4   7  110.17    4.33
  -1  -4   7   25.67    1.39
  -2  -4   7  606.46   13.21
  -3  -4   7    9.51    3.27
  -4  -4   7   21.71    1.16
  -5  -4   7   17.20    1.00
  -6  -4   7    2.46    2.26
  -6  -3   7   31.96    1.27
  -5  -3   7  132.29    5.51
  -4  -3   7  132.85    5.44
  -3  -3   7  453.26   11.64
  -2  -3   7  152.52    6.31
  -1  -3   7   92.12    3.67
   0  -3   7   78.25    3.08
   1  -3   7  101.16    4.11
   2  -3   7   11.60    1.13
   3  -3   7   27.03    1.20
   4  -3   7    6.81    2.63
   5  -3   7   13.26    0.80
   5  -2   7  108.94    4.34
   4  -2   7   22.87    1.05
   3  -2   7   22.24    1.13
   2  -2   7   77.69    3.27
   1  -2   7  205.46    7.80
   0  -2   7  100.23    3.96
  -1  -2   7  140.71    5.55
  -2  -2   7  146.28    5.83
  -3  -2   7  214.74    8.42
  -4  -2   7    7.22    3.12
  -5  -2   7  614.18   12.58
  -6  -2   7    0.00    2.04
  -6  -1   7   15.45    0.84
  -5  -1   7   16.47    1.17
  -4  -1   7  459.68   11.46
  -3  -1   7   85.79    3.63
  -2  -1   7  886.85   16.88
  -1  -1   7  483.08   13.09
   0  -1   7  194.12    7.71
   1  -1   7  171.35    7.21
   2  -1   7    5.43    3.09
   3  -1   7   22.08    1.15
   4  -1   7   14.75    0.92
   5  -1   7   14.73    0.82
   5   0   7   31.19    1.09
   3   0   7   33.16    1.28
   1   0   7    0.00    3.77
  -1   0   7   45.45    1.90
  -3   0   7   26.98    1.33
  -5   0   7 1042.23   16.22
  -4 -10   8   10.24    0.80
  -1  -9   8   74.88    3.13
  -4  -9   8  338.10    8.13
  -4  -8   8  174.15    6.22
  -1  -8   8   13.07    1.00
   0  -8   8   41.55    1.44
   1  -7   8  108.96    4.43
   0  -7   8    5.51    2.69
  -1  -7   8   16.59    1.14
  -2  -7   8   55.57    2.19
  -4  -7   8  119.22    4.69
  -4  -6   8  264.27    7.82
  -2  -6   8  439.46   10.79
  -1  -6   8    8.30    1.05
   0  -6   8  230.64    8.50
   1  -6   8  126.33    5.23
   1  -5   8  109.62    4.40
   0  -5   8   46.53    1.89
  -1  -5   8  517.77   11.85
  -2  -5   8    6.42    3.11
  -4  -5   8   32.02    1.15
  -5  -4   8    1.48    2.06
  -4  -4   8   67.55    2.81
  -2  -4   8   19.04    1.22
  -1  -4   8    0.00    3.72
   0  -4   8    9.30    3.60
   1  -4   8   75.91    2.98
   1  -3   8    9.07    3.16
   0  -3   8  283.84    8.95
  -2  -3   8    0.00    3.18
  -4  -3   8    2.43    2.60
  -5  -3   8   34.25    1.59
  -5  -2   8    0.62    2.12
  -4  -2   8   10.02    0.88
  -2  -2   8  280.48    9.37
  -1  -2   8   57.59    2.04
   0  -2   8   73.85    3.52
   1  -2   8   68.16    2.87
   3  -1   8    2.44    2.18
   1  -1   8   22.45    1.17
   0  -1   8    0.00    3.00
  -1  -1   8  223.13    8.86
  -2  -1   8   40.45    1.76
  -4  -1   8   91.61    3.46
  -5  -1   8    2.00    2.07
  -4   0   8   29.45    1.22
  -2   0   8    0.00    3.01
   0   0   8   19.85    1.23
   0  -6   9   30.74    1.42
  -1  -6   9   74.78    2.93
  -1  -5   9  463.45    9.60
   0  -5   9   36.47    1.47
   0  -4   9   96.23    4.18
   0  14   7  181.53    7.28
  -1  14   7   51.42    2.11
  -2  13   7    2.63    2.43
  -1  13   7    0.00    2.75
   0  13   7   63.62    2.70
   1  13   7  170.70    7.05
   0  12   7   68.89    2.83
  -1  12   7   38.81    1.37
  -2  12   7   17.03    1.08
  -2  11   7  256.45    8.98
   1  11   7   86.60    3.21
   2  11   7  183.23    7.50
   2  10   7    6.85    1.02
  -3   9   7   29.93    1.29
   2   9   7   41.65    1.68
   2   8   7   45.13    1.72
  -3   8   7   23.35    1.30
  -3   7   7    6.77    1.09
   2   7   7  827.90   15.54
  -3   6   7  122.43    5.00
  -2  14   8  104.74    4.23
  -1  14   8   18.24    0.89
   0  14   8    0.00    2.18
   1  13   8   49.69    2.05
   0  13   8   11.59    0.79
  -1  13   8  106.41    4.35
  -2  13   8   70.22    2.62
  -3  12   8   48.57    1.56
  -2  12   8  127.60    5.14
  -1  12   8    5.52    2.44
   0  12   8    2.62    2.34
   1  12   8   78.51    3.06
   2  11   8    4.11    2.51
   1  11   8  133.47    4.97
   0  11   8   14.96    0.93
  -1  11   8  125.85    4.76
  -2  11   8    0.92    2.25
  -3  11   8   14.90    0.88
  -3  10   8   26.04    1.03
  -2  10   8    1.64    2.59
  -1  10   8    5.06    2.90
   1  10   8   74.59    2.77
   2  10   8   38.22    1.60
   2   9   8  109.25    4.51
   1   9   8   89.77    3.59
  -2   9   8    7.94    0.90
  -3   9   8   57.61    2.36
  -3   8   8   44.04    1.78
  -2   8   8  141.73    5.61
   1   8   8  405.50   10.29
   2   8   8   82.76    3.09
   3   8   8    5.60    2.15
   3   7   8   17.58    0.89
   2   7   8  110.37    4.47
  -3   7   8   64.84    2.63
  -3   6   8    5.31    3.15
   2   6   8   39.22    1.42
   3   6   8   85.62    3.55
   3   5   8   16.43    0.91
   2   5   8   60.24    2.36
  -3   4   8  155.81    6.02
   2   4   8   76.26    2.63
   3   4   8  149.56    5.90
   3   3   8   14.46    0.93
   3   2   8  149.52    5.77
   2   3   8  134.55    5.30
  -3   3   8    0.63    2.24
  -3   2   8  122.30    4.80
   2   2   8    2.44    3.11
  -3   1   8    1.36    2.64
  -1   7   9   82.78    2.87
  -2   6   9    8.33    0.74
  -2   5   9  100.86    4.32
   1   4   9   45.00    1.83
  -1   4   9  133.11    4.94
  -2   4   9   98.06    3.90
  -2   3   9   88.36    3.46
  -1   3   9  196.56    6.72
   1   3   9    6.61    2.36
   1   2   9  231.00    6.99
  -1   2   9  245.47    7.36
  -2   2   9   10.91    0.84
  -3   1   9   34.23    1.32
  -2   1   9   32.61    1.40
  -1   1   9   78.04    3.54
   0   0   0    0.00    0.00
;
_shelx_hkl_checksum              14788
#END Tags that were not found in dictionaries
loop_
_space_group_symop_operation_xyz
'x, y, z'
'-x+1/2, y+1/2, -z+1/2'
'-x, -y, -z'
'x-1/2, -y-1/2, z-1/2'
loop_
_atom_site_label
_atom_site_type_symbol
_atom_site_fract_x
_atom_site_fract_y
_atom_site_fract_z
_atom_site_U_iso_or_equiv
_atom_site_adp_type
_atom_site_occupancy
_atom_site_site_symmetry_order
_atom_site_calc_flag
_atom_site_refinement_flags_posn
_atom_site_refinement_flags_adp
_atom_site_refinement_flags_occupancy
_atom_site_disorder_assembly
_atom_site_disorder_group
Ni Ni 0.0000 0.0000 0.5000 0.0329(5) Uani 1 2 d S . P . .
S1 S 0.29556(18) 0.03267(6) 0.55356(18) 0.0387(5) Uani 1 1 d . . . . .
N11 N 0.2867(7) 0.0285(2) 0.8809(7) 0.0451(13) Uani 1 1 d . . . . .
H11 H 0.2166 0.0030 0.8769 0.069(6) Uiso 1 1 calc R U . . .
N21 N 0.4652(7) 0.0835(2) 0.7992(7) 0.0513(15) Uani 1 1 d . . . . .
H21 H 0.5175 0.1022 0.7337 0.069(6) Uiso 1 1 calc R U . . .
C31 C 0.3491(7) 0.0491(2) 0.7506(8) 0.0349(13) Uani 1 1 d . . . . .
C41 C 0.3515(9) 0.0543(3) 1.0301(8) 0.0489(16) Uani 1 1 d . . . . .
H41A H 0.3931 0.0296 1.1126 0.069(6) Uiso 1 1 calc R U . . .
H41B H 0.2644 0.0756 1.0719 0.069(6) Uiso 1 1 calc R U . . .
C51 C 0.4968(9) 0.0870(3) 0.9754(8) 0.0510(17) Uani 1 1 d . . . . .
H51A H 0.4900 0.1223 1.0125 0.069(6) Uiso 1 1 calc R U . . .
H51B H 0.6074 0.0728 1.0136 0.069(6) Uiso 1 1 calc R U . . .
S2 S -0.12081(19) 0.04169(6) 0.72963(19) 0.0386(5) Uani 1 1 d . . . . .
N12 N -0.0190(8) 0.1239(2) 0.9089(7) 0.0484(14) Uani 1 1 d . . . . .
H12 H -0.0588 0.1114 0.9939 0.069(6) Uiso 1 1 calc R U . . .
N22 N 0.0402(7) 0.1299(2) 0.6591(7) 0.0427(13) Uani 1 1 d . . . . .
H22 H 0.0493 0.1210 0.5603 0.069(6) Uiso 1 1 calc R U . . .
C32 C -0.0294(7) 0.1008(2) 0.7659(7) 0.0358(14) Uani 1 1 d . . . . .
C42 C 0.0997(13) 0.1789(3) 0.7287(10) 0.063(2) Uani 1 1 d . . . . .
H42A H 0.0350 0.2074 0.6784 0.069(6) Uiso 1 1 calc R U . . .
H42B H 0.2199 0.1841 0.7163 0.069(6) Uiso 1 1 calc R U . . .
C52 C 0.0696(10) 0.1737(3) 0.9035(9) 0.0538(18) Uani 1 1 d . . . . .
H52A H 0.1765 0.1733 0.9721 0.069(6) Uiso 1 1 calc R U . . .
H52B H -0.0010 0.2016 0.9375 0.069(6) Uiso 1 1 calc R U . . .
S3 S -0.0517(2) 0.07478(6) 0.29793(18) 0.0392(5) Uani 1 1 d . . . . .
N13 N -0.3694(7) 0.0976(2) 0.3821(7) 0.0481(14) Uani 1 1 d . . . . .
H13 H -0.3885 0.0666 0.4119 0.069(6) Uiso 1 1 calc R U . . .
N23 N -0.2359(8) 0.1617(2) 0.2887(8) 0.0529(15) Uani 1 1 d . . . . .
H23 H -0.1573 0.1780 0.2444 0.069(6) Uiso 1 1 calc R U . . .
C33 C -0.2262(8) 0.1124(2) 0.3262(7) 0.0368(14) Uani 1 1 d . . . . .
C43 C -0.4927(10) 0.1395(3) 0.3880(9) 0.0523(17) Uani 1 1 d . . . . .
H43A H -0.5238 0.1449 0.4973 0.069(6) Uiso 1 1 calc R U . . .
H43B H -0.5950 0.1330 0.3163 0.069(6) Uiso 1 1 calc R U . . .
C53 C -0.3927(10) 0.1856(3) 0.3296(10) 0.0576(19) Uani 1 1 d . . . . .
H53A H -0.4533 0.2019 0.2357 0.069(6) Uiso 1 1 calc R U . . .
H53B H -0.3706 0.2111 0.4148 0.069(6) Uiso 1 1 calc R U . . .
Cl Cl 0.1073(2) 0.26676(7) 1.3290(2) 0.0589(6) Uani 1 1 d . . . . .
O1AT O 0.2598 0.2544 1.4285 0.161(9) Uiso 0.55(2) 1 d . . P . .
O2AT O 0.1338 0.3117 1.2349 0.218(19) Uiso 0.55(2) 1 d . . P . .
O3AT O 0.0627 0.2250 1.2199 0.194(12) Uiso 0.55(2) 1 d . . P . .
O3BT O 0.1698 0.2219 1.2534 0.199(15) Uiso 0.45(2) 1 d . . P . .
O2BT O 0.1436 0.3117 1.2389 0.072(6) Uiso 0.45(2) 1 d . . P . .
O1BT O 0.1886 0.2719 1.4898 0.147(10) Uiso 0.45(2) 1 d . . P . .
O4AT O -0.0269(18) 0.2757 1.4287 0.087(5) Uiso 0.55(2) 1 d . . P . .
O4BT O -0.045(10) 0.2616 1.3343 0.36(3) Uiso 0.45(2) 1 d . . P . .
loop_
_atom_site_aniso_label
_atom_site_aniso_U_11
_atom_site_aniso_U_22
_atom_site_aniso_U_33
_atom_site_aniso_U_23
_atom_site_aniso_U_13
_atom_site_aniso_U_12
Ni 0.0328(8) 0.0303(8) 0.0361(8) -0.0044(6) 0.0066(6) -0.0030(5)
S1 0.0339(8) 0.0407(9) 0.0421(9) -0.0033(6) 0.0061(6) -0.0048(6)
N11 0.045(3) 0.048(3) 0.041(3) 0.003(2) -0.002(2) -0.012(2)
N21 0.053(3) 0.053(3) 0.046(3) 0.007(3) -0.003(3) -0.021(3)
C31 0.031(3) 0.029(3) 0.044(3) 0.001(3) 0.001(2) 0.004(2)
C41 0.052(4) 0.052(4) 0.041(4) 0.000(3) 0.000(3) 0.000(3)
C51 0.052(4) 0.052(4) 0.047(4) -0.002(3) -0.008(3) -0.010(3)
S2 0.0405(9) 0.0335(9) 0.0431(9) -0.0063(6) 0.0117(7) -0.0043(6)
N12 0.071(4) 0.037(3) 0.038(3) -0.008(2) 0.009(3) -0.001(3)
N22 0.056(3) 0.032(3) 0.040(3) -0.003(2) 0.008(2) -0.006(2)
C32 0.036(3) 0.031(3) 0.041(3) -0.001(3) 0.003(3) 0.008(2)
C42 0.099(6) 0.031(4) 0.057(5) -0.004(3) 0.003(4) -0.015(4)
C52 0.069(5) 0.041(4) 0.052(4) -0.012(3) 0.004(3) -0.006(3)
S3 0.0450(9) 0.0342(9) 0.0389(9) 0.0036(6) 0.0075(6) 0.0015(6)
N13 0.048(3) 0.034(3) 0.063(4) 0.011(3) 0.012(3) 0.006(2)
N23 0.066(4) 0.030(3) 0.065(4) 0.009(3) 0.019(3) 0.000(3)
C33 0.047(4) 0.032(3) 0.031(3) 0.001(2) 0.000(3) -0.001(3)
C43 0.059(4) 0.041(4) 0.058(4) 0.001(3) 0.007(3) 0.014(3)
C53 0.076(5) 0.038(4) 0.060(5) 0.008(3) 0.010(4) 0.015(3)
Cl 0.0600(11) 0.0545(11) 0.0611(11) -0.0035(8) -0.0001(8) -0.0058(8)
loop_
_atom_type_symbol
_atom_type_description
_atom_type_scat_dispersion_real
_atom_type_scat_dispersion_imag
_atom_type_scat_source
Ni Ni -3.0029 0.5091 'International Tables Vol C Tables 4.2.6.8 and 6.1.1.4'
Cl Cl 0.3639 0.7018 'International Tables Vol C Tables 4.2.6.8 and 6.1.1.4'
O O 0.0492 0.0322 'International Tables Vol C Tables 4.2.6.8 and 6.1.1.4'
C C 0.0181 0.0091 'International Tables Vol C Tables 4.2.6.8 and 6.1.1.4'
N N 0.0311 0.0180 'International Tables Vol C Tables 4.2.6.8 and 6.1.1.4'
S S 0.3331 0.5567 'International Tables Vol C Tables 4.2.6.8 and 6.1.1.4'
H H 0.0000 0.0000 'International Tables Vol C Tables 4.2.6.8 and 6.1.1.4'
loop_
_geom_angle_atom_site_label_1
_geom_angle_atom_site_label_2
_geom_angle_atom_site_label_3
_geom_angle
_geom_angle_site_symmetry_1
_geom_angle_site_symmetry_3
S2 Ni S2 180.0 . 3_556
S2 Ni S1 97.81(5) . .
S2 Ni S1 82.19(5) 3_556 .
S2 Ni S1 82.19(5) . 3_556
S2 Ni S1 97.81(5) 3_556 3_556
S1 Ni S1 180.00(7) . 3_556
S2 Ni S3 97.05(5) . .
S2 Ni S3 82.95(5) 3_556 .
S1 Ni S3 86.95(5) . .
S1 Ni S3 93.05(5) 3_556 .
S2 Ni S3 82.95(5) . 3_556
S2 Ni S3 97.05(5) 3_556 3_556
S1 Ni S3 93.05(5) . 3_556
S1 Ni S3 86.95(5) 3_556 3_556
S3 Ni S3 180.00(4) . 3_556
C31 S1 Ni 113.7(2) . .
C31 N11 C41 112.0(5) . .
C31 N21 C51 113.3(6) . .
N21 C31 N11 108.8(6) . .
N21 C31 S1 124.5(5) . .
N11 C31 S1 126.7(5) . .
N11 C41 C51 102.5(5) . .
N21 C51 C41 101.6(5) . .
C32 S2 Ni 110.1(2) . .
C32 N12 C52 111.1(6) . .
C32 N22 C42 111.9(6) . .
N22 C32 N12 110.3(5) . .
N22 C32 S2 126.2(5) . .
N12 C32 S2 123.6(5) . .
N22 C42 C52 103.3(6) . .
N12 C52 C42 103.2(5) . .
C33 S3 Ni 114.8(2) . .
C33 N13 C43 112.8(5) . .
C33 N23 C53 113.1(6) . .
N13 C33 N23 109.5(6) . .
N13 C33 S3 127.1(5) . .
N23 C33 S3 123.4(5) . .
N13 C43 C53 102.0(6) . .
N23 C53 C43 102.3(5) . .
O1AT Cl O3BT 76.37(10) . .
O1AT Cl O4BT 137.4(4) . .
O3BT Cl O4BT 107.9(4) . .
O1AT Cl O1BT 37.23(5) . .
O3BT Cl O1BT 109.93(13) . .
O4BT Cl O1BT 109.56(19) . .
O1AT Cl O2AT 109.95(12) . .
O3BT Cl O2AT 110.59(13) . .
O4BT Cl O2AT 107.8(4) . .
O1BT Cl O2AT 110.96(12) . .
O1AT Cl O2BT 106.70(12) . .
O3BT Cl O2BT 110.00(13) . .
O4BT Cl O2BT 110.9(4) . .
O1BT Cl O2BT 108.53(12) . .
O2AT Cl O2BT 3.252(4) . .
O1AT Cl O3AT 109.67(13) . .
O3BT Cl O3AT 35.20(5) . .
O4BT Cl O3AT 75.8(3) . .
O1BT Cl O3AT 136.03(14) . .
O2AT Cl O3AT 108.19(13) . .
O2BT Cl O3AT 109.67(13) . .
O1AT Cl O4AT 109.4(3) . .
O3BT Cl O4AT 133.8(2) . .
O4BT Cl O4AT 37.3(3) . .
O1BT Cl O4AT 74.6(3) . .
O2AT Cl O4AT 109.81(13) . .
O2BT Cl O4AT 111.54(13) . .
O3AT Cl O4AT 109.8(3) . .
O1BT O1AT Cl 71.45(8) . .
O1BT O1AT O3BT 118.324(4) . .
Cl O1AT O3BT 51.90(8) . .
O3BT O3AT Cl 72.30(8) . .
O3BT O3AT O4BT 114(2) . .
Cl O3AT O4BT 46(2) . .
O3AT O3BT Cl 72.50(7) . .
O3AT O3BT O1AT 121.409(3) . .
Cl O3BT O1AT 51.73(8) . .
O1AT O1BT Cl 71.32(8) . .
O1AT O1BT O4AT 120.25(11) . .
Cl O1BT O4AT 52.45(16) . .
O4BT O4AT Cl 58(5) . .
O4BT O4AT O1BT 108(5) . .
Cl O4AT O1BT 52.9(5) . .
O4AT O4BT Cl 85(5) . .
O4AT O4BT O3AT 136(7) . .
Cl O4BT O3AT 58(2) . .
loop_
_geom_bond_atom_site_label_1
_geom_bond_atom_site_label_2
_geom_bond_distance
_geom_bond_site_symmetry_2
Ni S2 2.4560(14) .
Ni S2 2.4560(14) 3_556
Ni S1 2.4760(14) .
Ni S1 2.4760(14) 3_556
Ni S3 2.5697(15) .
Ni S3 2.5697(15) 3_556
S1 C31 1.701(6) .
N11 C31 1.338(8) .
N11 C41 1.455(9) .
N21 C31 1.314(8) .
N21 C51 1.460(9) .
C41 C51 1.527(10) .
S2 C32 1.709(6) .
N12 C32 1.323(8) .
N12 C52 1.470(9) .
N22 C32 1.320(8) .
N22 C42 1.454(9) .
C42 C52 1.496(11) .
S3 C33 1.719(6) .
N13 C33 1.316(8) .
N13 C43 1.461(8) .
N23 C33 1.315(8) .
N23 C53 1.450(10) .
C43 C53 1.534(11) .
Cl O1AT 1.4275(19) .
Cl O3BT 1.4309(19) .
Cl O4BT 1.21(8) .
Cl O1BT 1.4286(19) .
Cl O2AT 1.4276(19) .
Cl O2BT 1.4275(19) .
Cl O3AT 1.4325(18) .
Cl O4AT 1.419(11) .
O1AT O1BT 0.91169(4) .
O1AT O3BT 1.76701(7) .
O3AT O3BT 0.86584(5) .
O3AT O4BT 1.63(4) .
O1BT O4AT 1.726(13) .
O4AT O4BT 0.863(7) .
