#------------------------------------------------------------------------------
#$Date: 2016-02-04 09:46:42 +0200 (Thu, 04 Feb 2016) $
#$Revision: 175821 $
#$URL: svn://www.crystallography.net/cod/cif/1/54/19/1541914.cif $
#------------------------------------------------------------------------------
#
# This file is available in the Crystallography Open Database (COD),
# http://www.crystallography.net/
#
# All data on this site have been placed in the public domain by the
# contributors.
#
data_1541914
loop_
_publ_author_name
'Gerstner, Nels C.'
'Adams, Christopher S.'
'Grigg, R. David'
'Tretbar, Maik'
'Rigoli, Jared W.'
'Schomaker, Jennifer M.'
_publ_section_title
;
 Diastereoselective Synthesis of the Aminocyclitol Core of Jogyamycin via
 an Allene Aziridination Strategy.
;
_journal_issue                   2
_journal_name_full               'Organic letters'
_journal_page_first              284
_journal_page_last               287
_journal_paper_doi               10.1021/acs.orglett.5b03453
_journal_volume                  18
_journal_year                    2016
_chemical_absolute_configuration ad
_chemical_compound_source        'Schomaker Lab No. CSA8084'
_chemical_formula_moiety         'C11 H21 N O5 S'
_chemical_formula_sum            'C11 H21 N O5 S'
_chemical_formula_weight         279.35
_chemical_name_systematic
;       
'4-ethyl-5-hydroxy-4-(-2-hydroxy-3-methylbut-3
-en-2-yl)-1,2,3-oxathiazepane 2,2-dioxide'
;
_chemical_properties_physical    air-stable
_space_group_crystal_system      orthorhombic
_space_group_IT_number           19
_space_group_name_Hall           'P 2ac 2ab'
_space_group_name_H-M_alt        'P 21 21 21'
_symmetry_space_group_name_Hall  'P 2ac 2ab'
_symmetry_space_group_name_H-M   'P 21 21 21'
_atom_sites_solution_hydrogens   mixed
_audit_creation_method
;
Olex2 1.2
(compiled 2013.09.17 svn.r2790 for OlexSys, GUI svn.r4601)
;
_cell_angle_alpha                90
_cell_angle_beta                 90
_cell_angle_gamma                90
_cell_formula_units_Z            4
_cell_length_a                   7.4335(15)
_cell_length_b                   12.118(2)
_cell_length_c                   14.438(3)
_cell_measurement_reflns_used    9891
_cell_measurement_temperature    100(2)
_cell_measurement_theta_max      70.1029
_cell_measurement_theta_min      4.7660
_cell_volume                     1300.6(4)
_computing_cell_refinement       'SAINT+ Ver. 8.30C (Bruker-AXS, 2013)'
_computing_data_collection       'APEX2 Ver. 2013.2-0 (Bruker-AXS, 2013)'
_computing_data_reduction        'SAINT+ Ver. 8.30C (Bruker-AXS, 2013)'
_computing_molecular_graphics    'SHELXL-2014/6 (Sheldrick, 2014)'
_computing_publication_material  'SHELXL-2014/6 (Sheldrick, 2014)'
_computing_structure_refinement  'SHELXL-2014/6 (Sheldrick, 2014)'
_computing_structure_solution    'SHELXL-2014/6 (Sheldrick, 2014)'
_diffrn_ambient_temperature      100(2)
_diffrn_detector_area_resol_mean 7.9
_diffrn_detector_type            'CCD area detector'
_diffrn_measured_fraction_theta_full 1.000
_diffrn_measured_fraction_theta_max 1.000
_diffrn_measurement_device       'three-circle diffractometer'
_diffrn_measurement_device_type  'Bruker SMART APEX2 area detector'
_diffrn_measurement_method       '0.60\% \w and 0.6\% \f scans'
_diffrn_radiation_collimation    '0.5 mm double-pinhole'
_diffrn_radiation_monochromator  'equatorially mounted graphite'
_diffrn_radiation_probe          x-ray
_diffrn_radiation_type           'Cu K\a'
_diffrn_radiation_wavelength     1.54178
_diffrn_radiation_xray_symbol    K-L~3~
_diffrn_reflns_av_unetI/netI     0.0192
_diffrn_reflns_laue_measured_fraction_full 1.000
_diffrn_reflns_laue_measured_fraction_max 1.000
_diffrn_reflns_number            2461
_diffrn_reflns_point_group_measured_fraction_full 0.998
_diffrn_reflns_point_group_measured_fraction_max 0.996
_diffrn_reflns_theta_full        67.000
_diffrn_reflns_theta_max         70.086
_diffrn_reflns_theta_min         4.764
_diffrn_source                   'sealed X-ray tube'
_diffrn_source_type              'Siemens, K FFCU 2K 90'
_exptl_absorpt_coefficient_mu    2.358
_exptl_absorpt_correction_type   multi-scan
_exptl_crystal_colour            colorless
_exptl_crystal_density_diffrn    1.427
_exptl_crystal_description       needle
_exptl_crystal_F_000             600
_exptl_crystal_recrystallization_method 'dichlormethan, n-hexane'
_exptl_crystal_size_max          0.15
_exptl_crystal_size_mid          0.07
_exptl_crystal_size_min          0.05
_exptl_transmission_factor_max   0.753299
_exptl_transmission_factor_min   0.648046
_refine_diff_density_max         0.222
_refine_diff_density_min         -0.313
_refine_diff_density_rms         0.044
_refine_ls_abs_structure_details
;
 Flack x determined using 985 quotients [(I+)-(I-)]/[(I+)+(I-)]
 (Parsons, Flack and Wagner, Acta Cryst. B69 (2013) 249-259).
;
_refine_ls_abs_structure_Flack   0.154(8)
_refine_ls_extinction_method     none
_refine_ls_goodness_of_fit_ref   1.035
_refine_ls_hydrogen_treatment    mixed
_refine_ls_matrix_type           full
_refine_ls_number_parameters     176
_refine_ls_number_reflns         2461
_refine_ls_number_restraints     0
_refine_ls_restrained_S_all      1.035
_refine_ls_R_factor_all          0.0283
_refine_ls_R_factor_gt           0.0277
_refine_ls_shift/su_max          0.000
_refine_ls_shift/su_mean         0.000
_refine_ls_structure_factor_coef Fsqd
_refine_ls_weighting_details
'w=1/[\s^2^(Fo^2^)+(0.0442P)^2^+0.5028P] where P=(Fo^2^+2Fc^2^)/3'
_refine_ls_weighting_scheme      calc
_refine_ls_wR_factor_gt          0.0729
_refine_ls_wR_factor_ref         0.0733
_reflns_Friedel_coverage         0.707
_reflns_friedel_fraction_full    0.996
_reflns_friedel_fraction_max     0.989
_reflns_number_gt                2412
_reflns_number_total             2461
_reflns_threshold_expression     'I > 2\s(I)'
_cod_data_source_file            ol5b03453_si_004.cif
_cod_data_source_block           schomaker48
_cod_depositor_comments
'Adding full bibliography for 1541913--1541914.cif.'
_cod_original_cell_volume        1300.6(5)
_cod_database_code               1541914
_shelx_space_group_comment
;
The symmetry employed for this shelxl refinement is uniquely defined
by the following loop, which should always be used as a source of
symmetry information in preference to the above space-group names.
They are only intended as comments.
;
_shelxl_version_number           2014/6
_shelx_res_file
;
TITL Schomaker48 in P212121 #19
CELL 1.54184 7.4335 12.1183 14.4379 90 90 90
ZERR 4 0.00149 0.00242 0.00289 0 0 0
LATT -1
SYMM 0.5-X,-Y,0.5+Z
SYMM 0.5+X,0.5-Y,-Z
SYMM -X,0.5+Y,0.5-Z

SFAC C H N O S
UNIT 44 84 4 20 4

L.S. 12
PLAN  20
TEMP -173
REM reset to P212121 #19
BOND
MORE -1
MORE -1
MORE -1
MORE -1
HTAB
fmap 2
acta 134
CONF


WGHT    0.044200    0.502800
FVAR       0.74822
S1    5    0.864150    0.374512    0.198721    11.00000    0.01422    0.01839 =
         0.01753   -0.00074    0.00145   -0.00056
O1    4    1.072936    0.379363   -0.070775    11.00000    0.01845    0.01606 =
         0.01948   -0.00362   -0.00186    0.00160
AFIX 147
H1    2    1.138348    0.324411   -0.081879    11.00000   -1.50000
AFIX   0
O2    4    1.250459    0.238668    0.051075    11.00000    0.02168    0.01547 =
         0.02221   -0.00237   -0.00147    0.00409
AFIX 147
H2    2    1.312562    0.183021    0.064530    11.00000   -1.50000
AFIX   0
O3    4    0.811220    0.480610    0.231007    11.00000    0.01967    0.02218 =
         0.02487   -0.00266    0.00361    0.00249
O4    4    0.727553    0.293330    0.181545    11.00000    0.01866    0.02609 =
         0.02169   -0.00116    0.00201   -0.00420
O5    4    0.996709    0.332083    0.275774    11.00000    0.01842    0.02112 =
         0.01774   -0.00035    0.00110    0.00097
N6    3    0.977605    0.381280    0.103664    11.00000    0.01582    0.01686 =
         0.01720   -0.00253   -0.00030   -0.00031
AFIX   3
H6    2    0.977335    0.314370    0.069964    11.00000   -1.20000
AFIX   0
C7    1    1.172564    0.458470   -0.015922    11.00000    0.01756    0.01689 =
         0.01746   -0.00084   -0.00078   -0.00107
C8    1    1.194345    0.521889    0.157288    11.00000    0.01660    0.01722 =
         0.01831   -0.00290    0.00059   -0.00049
AFIX  23
H8A   2    1.109204    0.581204    0.139922    11.00000   -1.20000
H8B   2    1.162115    0.497548    0.220605    11.00000   -1.20000
AFIX   0
C9    1    1.365926    0.459603   -0.052578    11.00000    0.01855    0.02184 =
         0.01988    0.00060    0.00144   -0.00121
AFIX 137
H9A   2    1.415121    0.384602   -0.050905    11.00000   -1.50000
H9B   2    1.439743    0.508116   -0.013785    11.00000   -1.50000
H9C   2    1.366624    0.486817   -0.116495    11.00000   -1.50000
AFIX   0
C10   1    1.295158    0.285973    0.212601    11.00000    0.01823    0.02021 =
         0.02172    0.00149   -0.00274    0.00210
AFIX  23
H10A  2    1.386662    0.226895    0.217438    11.00000   -1.20000
H10B  2    1.334272    0.346987    0.253512    11.00000   -1.20000
AFIX   0
C11   1    1.076380    0.568868   -0.032886    11.00000    0.02319    0.01962 =
         0.01506   -0.00046   -0.00070    0.00277
C12   1    1.295768    0.328564    0.112949    11.00000    0.01596    0.01700 =
         0.01914   -0.00123   -0.00052    0.00039
AFIX  13
H12   2    1.420263    0.354100    0.097804    11.00000   -1.20000
AFIX   0
C13   1    1.383157    0.572031    0.161091    11.00000    0.02101    0.02575 =
         0.02723   -0.00723    0.00023   -0.00611
AFIX 137
H13A  2    1.411817    0.605765    0.101193    11.00000   -1.50000
H13B  2    1.470991    0.513992    0.174844    11.00000   -1.50000
H13C  2    1.387568    0.628443    0.209673    11.00000   -1.50000
AFIX   0
C14   1    1.166289    0.661376   -0.047458    11.00000    0.03104    0.01979 =
         0.02766    0.00364   -0.00122    0.00242
C15   1    1.119537    0.241227    0.249935    11.00000    0.02146    0.01806 =
         0.02007    0.00048    0.00038    0.00363
AFIX  23
H15A  2    1.061593    0.194418    0.202309    11.00000   -1.20000
H15B  2    1.143674    0.194741    0.304934    11.00000   -1.20000
AFIX   0
C16   1    1.163395    0.423583    0.090860    11.00000    0.01333    0.01647 =
         0.01706   -0.00017    0.00099   -0.00075
C17   1    0.873319    0.568498   -0.035821    11.00000    0.02470    0.02299 =
         0.03317    0.00228   -0.00340    0.00578
AFIX 137
H17A  2    0.832167    0.515724   -0.082686    11.00000   -1.50000
H17B  2    0.829859    0.642486   -0.051632    11.00000   -1.50000
H17C  2    0.826147    0.547042    0.024950    11.00000   -1.50000
AFIX   0
H14A  2    1.293415    0.664594   -0.046682    11.00000    0.02010
H14B  2    1.102991    0.732044   -0.056968    11.00000    0.03026
HKLF 4

REM  Schomaker48 in P212121 #19
REM R1 =  0.0277 for    2412 Fo > 4sig(Fo)  and  0.0283 for all    2461 data
REM    176 parameters refined using      0 restraints

END

WGHT      0.0443      0.5023

REM Instructions for potential hydrogen bonds
HTAB O1 O2
EQIV $1 x+1/2, -y+1/2, -z
HTAB O1 O4_$1
HTAB O2 O1_$1
HTAB N6 O2
EQIV $2 x-1/2, -y+1/2, -z
HTAB N6 O2_$2
HTAB C8 O5
HTAB C9 O2

REM Highest difference peak  0.222,  deepest hole -0.313,  1-sigma level  0.044
Q1    1   1.1858  0.4783  0.1187  11.00000  0.05    0.22
Q2    1   0.9284  0.3766  0.1468  11.00000  0.05    0.21
Q3    1   1.1753  0.4434  0.0400  11.00000  0.05    0.21
Q4    1   1.2293  0.3802  0.1019  11.00000  0.05    0.19
Q5    1   1.2851  0.3131  0.1695  11.00000  0.05    0.19
Q6    1   0.9112  0.3420  0.0630  11.00000  0.05    0.18
Q7    1   1.1284  0.5139 -0.0177  11.00000  0.05    0.17
Q8    1   1.1264  0.6239 -0.0034  11.00000  0.05    0.17
Q9    1   1.2806  0.4639 -0.0261  11.00000  0.05    0.16
Q10   1   0.9529  0.3608  0.2426  11.00000  0.05    0.15
Q11   1   1.1245  0.6072 -0.0810  11.00000  0.05    0.14
Q12   1   1.0723  0.3974  0.1017  11.00000  0.05    0.14
Q13   1   0.8409  0.5012  0.2849  11.00000  0.05    0.14
Q14   1   1.2855  0.5434  0.1565  11.00000  0.05    0.13
Q15   1   0.8808  0.4263  0.0800  11.00000  0.05    0.13
Q16   1   1.1337  0.2193  0.3110  11.00000  0.05    0.13
Q17   1   0.8404  0.5281  0.1963  11.00000  0.05    0.13
Q18   1   1.4972  0.3257  0.0032  11.00000  0.05    0.12
Q19   1   1.2206  0.2728  0.2364  11.00000  0.05    0.12
Q20   1   1.0689  0.3001  0.2637  11.00000  0.05    0.12
;
_shelx_res_checksum              30490
_shelx_hkl_file
;
   1   0   0 2.29582 0.49427
   2   0   0 3035.23 38.4603
   3   0   0 0.96382 0.73214
   4   0   0 927.947 12.5001
   5   0   0 1.20756 0.96583
   6   0   0 351.977 7.26312
   7   0   0 0.15709 1.20405
   8   0   0 197.213 8.08567
   9   0   0 0.66600 1.05381
   0   1   0 0.74160 0.34750
   1   1   0 1225.98 14.2289
   2   1   0 281.403 3.22575
   3   1   0 384.480 4.01606
   4   1   0 222.686 2.87602
   5   1   0 23.1957 1.26907
   6   1   0 1.66456 0.73777
   7   1   0 25.6902 1.66383
   8   1   0 93.1223 4.05151
   9   1   0 254.314 5.92721
   0   2   0 63.8172 2.41325
   1   2   0 3259.82 38.9233
   2   2   0 251.074 3.10501
   3   2   0 242.711 3.09483
   4   2   0 1703.35 15.2328
   5   2   0 30.0725 1.44793
   6   2   0 317.027 5.24183
   7   2   0 713.381 10.8017
   8   2   0 164.850 5.14276
   0   3   0 0.57834 0.67252
   1   3   0 225.840 3.17195
   2   3   0 81.2274 1.67106
   3   3   0 171.906 2.49663
   4   3   0 3.75787 0.65519
   5   3   0 70.5974 2.08354
   6   3   0 58.3882 2.17234
   7   3   0 66.2354 2.46026
   8   3   0 9.80499 1.51349
   0   4   0 214.654 4.45540
   1   4   0 8.28216 0.70681
   2   4   0 4152.35 41.7659
   3   4   0 1625.30 15.2138
   4   4   0 686.727 7.54856
   5   4   0 308.146 5.28153
   6   4   0 95.7787 2.58998
   7   4   0 115.820 3.17521
   8   4   0 114.044 3.34184
   0   5   0 0.73971 0.69394
   1   5   0 25.0840 1.09159
   2   5   0 1121.84 12.6118
   3   5   0 6.16814 0.74949
   4   5   0 214.678 3.70679
   5   5   0 434.921 6.11506
   6   5   0 340.431 5.38240
   7   5   0 33.8655 1.68787
   8   5   0 174.106 4.61879
   0   6   0 0.72203 0.96874
   1   6   0 2310.47 24.1951
   2   6   0 3.97950 0.70772
   3   6   0 292.647 4.28313
   4   6   0 300.323 5.25948
   5   6   0 87.1469 2.64842
   6   6   0 393.112 5.99074
   7   6   0 32.2219 1.67959
   8   6   0 107.582 3.16417
   0   7   0 1.02465 0.86743
   1   7   0 23.9733 1.22707
   2   7   0 81.8822 2.12201
   3   7   0 274.472 4.24551
   4   7   0 12.2925 1.08639
   5   7   0 335.125 6.01299
   6   7   0 100.978 2.88705
   7   7   0 31.4578 1.86974
   0   8   0 368.317 7.79267
   1   8   0 13.7870 1.05795
   2   8   0 3.62668 0.84013
   3   8   0 39.9597 1.95524
   4   8   0 70.7656 2.28617
   5   8   0 56.3688 2.29644
   6   8   0 2.68964 0.92541
   7   8   0 18.7857 1.41313
   0   9   0 1.08864 1.32232
   1   9   0 1086.54 15.4510
   2   9   0 571.795 7.23534
   3   9   0 0.83732 0.68092
   4   9   0 270.669 4.49191
   5   9   0 160.783 3.82275
   6   9   0 85.1349 2.74270
   7   9   0 1.43000 0.63608
   0  10   0 130.126 3.84823
   1  10   0 322.776 4.90972
   2  10   0 0.35358 0.65214
   3  10   0 130.164 2.90884
   4  10   0 80.3457 2.24683
   5  10   0 74.5916 2.40188
   6  10   0 9.67432 1.02449
   0  11   0 0.39275 0.93683
   1  11   0 147.987 3.09464
   2  11   0 366.972 5.45633
   3  11   0 2.07465 0.75368
   4  11   0 153.051 3.03635
   5  11   0 29.1896 2.03660
   6  11   0 182.953 4.74992
   0  12   0 151.302 4.21029
   1  12   0 66.1577 1.93293
   2  12   0 1.35592 0.67896
   3  12   0 2.95568 0.90776
   4  12   0 96.1014 2.88554
   5  12   0 5.57174 0.97781
   0  13   0 0.69843 0.89136
   1  13   0 17.8415 1.18400
   2  13   0 4.03349 0.91493
   3  13   0 22.7676 1.68784
   4  13   0 75.7901 2.35355
   0  14   0 3.92274 1.50844
   1  14   0 165.371 4.60925
   2  14   0 3.09503 1.11283
   0   0   1 0.49470 0.25681
   1   0   1 2911.40 32.3232
   2   0   1 26.4405 0.83966
   3   0   1 117.350 1.78609
   4   0   1 2.15418 0.58582
   5   0   1 29.8095 1.41252
   6   0   1 194.535 3.65242
   7   0   1 1181.37 17.3887
   8   0   1 6.95188 1.28745
   9   0   1 0.86278 0.78218
   0   1   1 3733.31 55.5791
  -1  -1  -1 2568.13 37.4481
   1   1   1 2713.09 31.5568
  -2  -1  -1 2382.07 21.7319
   2   1   1 2466.83 21.8166
  -3  -1  -1 774.851 7.22068
   3   1   1 759.179 7.05742
  -4  -1  -1 358.611 4.19998
   4   1   1 382.945 4.34094
  -5  -1  -1 30.8634 1.39765
   5   1   1 21.7173 1.27265
  -6  -1  -1 104.741 2.47819
   6   1   1 86.7958 2.61157
  -7  -1  -1 19.0008 1.56551
   7   1   1 17.2982 1.52530
  -8  -1  -1 21.7800 1.81474
   8   1   1 21.1679 1.74302
  -9  -1  -1 237.654 5.30210
   9   1   1 222.056 5.97194
   0   2   1 6550.87 94.7253
  -1  -2  -1 42.9699 1.29135
   1   2   1 46.0289 1.02442
  -2  -2  -1 101.736 1.75594
   2   2   1 104.454 1.62325
  -3  -2  -1 1765.95 16.3323
   3   2   1 1791.84 16.1785
  -4  -2  -1 49.8082 1.42488
   4   2   1 73.0951 1.60710
  -5  -2  -1 712.580 8.68168
   5   2   1 733.263 9.56192
  -6  -2  -1 575.921 7.24268
   6   2   1 581.607 8.27464
  -7  -2  -1 227.150 5.43535
   7   2   1 221.891 4.71572
  -8  -2  -1 175.501 4.84771
   8   2   1 175.186 5.04599
   0   3   1 25.1900 1.00582
  -1  -3  -1 3338.31 43.8746
   1   3   1 3413.06 34.2597
  -2  -3  -1 2211.38 23.8962
   2   3   1 2246.34 20.2974
  -3  -3  -1 993.021 10.0376
   3   3   1 959.725 9.88998
  -4  -3  -1 178.472 2.97433
   4   3   1 188.763 2.80690
  -5  -3  -1 547.051 6.95794
   5   3   1 497.106 6.91656
  -6  -3  -1 428.171 6.17493
   6   3   1 393.263 5.92584
  -7  -3  -1 141.794 4.45242
   7   3   1 146.857 3.66078
  -8  -3  -1 69.4001 3.58067
   8   3   1 61.9076 2.65316
   0   4   1 1951.63 21.8477
  -1  -4  -1 988.464 13.4864
   1   4   1 1071.16 11.6440
  -2  -4  -1 48.9246 1.47290
   2   4   1 39.2487 1.37830
  -3  -4  -1 128.654 2.24581
   3   4   1 141.982 2.48792
  -4  -4  -1 325.141 4.44989
   4   4   1 324.724 4.49417
  -5  -4  -1 217.176 4.27958
   5   4   1 237.617 4.75109
  -6  -4  -1 3.44732 0.90895
   6   4   1 2.83467 0.88106
  -7  -4  -1 351.526 7.13228
   7   4   1 356.202 5.77098
  -8  -4  -1 33.8889 2.03741
   8   4   1 32.2023 1.88551
   0   5   1 5.94114 0.78160
  -1  -5  -1 927.415 10.3895
   1   5   1 994.842 11.3132
  -2  -5  -1 1383.54 16.4310
   2   5   1 1317.30 14.0605
  -3  -5  -1 363.186 4.81050
   3   5   1 377.202 4.54436
  -4  -5  -1 157.590 3.11790
   4   5   1 142.963 3.07017
  -5  -5  -1 33.5059 1.48054
   5   5   1 39.3519 1.57859
  -6  -5  -1 226.500 4.11403
   6   5   1 218.004 4.19855
  -7  -5  -1 42.0032 2.04526
   7   5   1 44.1347 1.80157
  -8  -5  -1 10.8764 1.31450
   8   5   1 12.8367 1.40152
   0   6   1 168.467 3.09832
  -1  -6  -1 233.313 3.81082
   1   6   1 249.007 3.76155
  -2  -6  -1 254.801 4.09575
   2   6   1 256.980 3.66124
  -3  -6  -1 72.1852 1.96317
   3   6   1 75.8644 2.08000
  -4  -6  -1 751.705 10.0321
   4   6   1 744.265 10.4948
  -5  -6  -1 598.319 8.38655
   5   6   1 608.574 8.08333
  -6  -6  -1 154.292 3.40645
   6   6   1 156.019 3.25900
  -7  -6  -1 43.1431 2.25195
   7   6   1 40.6991 1.87402
  -8  -6  -1 269.207 6.21510
   8   6   1 273.524 5.81438
   0   7   1 431.695 5.80954
  -1  -7  -1 25.0200 1.32067
   1   7   1 19.5365 1.17832
  -2  -7  -1 357.024 5.27734
   2   7   1 391.372 5.19395
  -3  -7  -1 228.480 3.85514
   3   7   1 226.076 4.21616
  -4  -7  -1 99.0414 2.38742
   4   7   1 85.8158 2.32987
  -5  -7  -1 39.1229 1.96541
   5   7   1 48.5962 1.98133
  -6  -7  -1 49.3331 2.18533
   6   7   1 56.5415 2.11671
  -7  -7  -1 0.57600 0.91251
   7   7   1 1.56437 0.94897
   0   8   1 52.7151 1.85050
  -1  -8  -1 453.312 6.12104
   1   8   1 444.390 5.88554
  -2  -8  -1 127.783 2.81772
   2   8   1 139.068 3.05532
  -3  -8  -1 936.984 12.4784
   3   8   1 933.840 13.4445
  -4  -8  -1 20.4613 1.25451
   4   8   1 19.9897 1.44980
  -5  -8  -1 20.4557 1.50783
   5   8   1 27.2777 1.63910
  -6  -8  -1 16.7074 1.34082
   6   8   1 12.1727 1.21904
  -7  -8  -1 83.5312 2.86041
   7   8   1 103.892 2.97426
   0   9   1 411.985 7.21038
  -1  -9  -1 279.520 5.82199
   1   9   1 280.107 5.24248
  -2  -9  -1 280.117 3.88993
   2   9   1 279.241 4.32684
  -3  -9  -1 58.9677 1.91413
   3   9   1 79.2198 2.18943
  -4  -9  -1 47.8709 1.78795
   4   9   1 40.3931 1.75321
  -5  -9  -1 143.525 3.35504
   5   9   1 136.221 3.48598
  -6  -9  -1 123.284 3.41944
   6   9   1 106.624 3.20362
  -7  -9  -1 91.2803 2.64509
   7   9   1 84.4413 2.93736
   0  10   1 106.730 2.52563
  -1 -10  -1 84.6270 2.35403
   1  10   1 90.4646 2.34633
  -2 -10  -1 59.6667 1.80371
   2  10   1 58.0629 1.95252
  -3 -10  -1 104.355 2.49721
   3  10   1 105.577 2.60519
  -4 -10  -1 184.457 3.47087
   4  10   1 181.158 3.62213
  -5 -10  -1 11.7304 1.13289
   5  10   1 11.7164 1.07393
  -6 -10  -1 17.7932 1.28031
   6  10   1 16.3275 1.77968
   0  11   1 409.002 5.83045
  -1 -11  -1 649.405 8.58964
   1  11   1 653.919 8.76458
  -2 -11  -1 280.780 4.28565
   2  11   1 306.977 5.00807
  -3 -11  -1 3.47163 0.84457
   3  11   1 3.33580 0.89144
  -4 -11  -1 96.1794 2.46959
   4  11   1 98.4264 2.90465
  -5 -11  -1 42.6328 1.90010
   5  11   1 48.9578 2.48868
  -6 -11  -1 55.1381 2.07747
   6  11   1 51.3553 2.58870
   0  12   1 13.1872 1.01844
  -1 -12  -1 20.7390 1.21512
   1  12   1 26.2947 1.43152
  -2 -12  -1 18.5418 1.18588
   2  12   1 18.1551 1.37837
  -3 -12  -1 120.511 2.77763
   3  12   1 122.682 3.03297
  -4 -12  -1 2.22975 0.93030
   4  12   1 2.36793 1.06267
  -5 -12  -1 122.094 3.42579
   5  12   1 127.902 3.48703
   0  13   1 12.8116 1.06780
  -1 -13  -1 62.0756 1.81490
   1  13   1 61.9521 2.10011
  -2 -13  -1 36.3775 1.57485
   2  13   1 32.9204 1.75540
  -3 -13  -1 79.4982 2.70573
   3  13   1 90.2725 3.06799
  -4 -13  -1 5.89692 0.85321
   4  13   1 4.09986 1.00885
   0  14   1 106.142 3.43337
  -1 -14  -1 69.7909 2.92377
   1  14   1 67.2361 2.26691
  -2 -14  -1 10.6696 1.40661
   2  14   1 13.2270 1.28090
   0   0   2 216.875 4.72159
   1   0   2 24.9626 0.77337
   2   0   2 50.7525 1.13297
   3   0   2 1097.21 10.0183
   4   0   2 5.77459 0.66656
   5   0   2 1.20098 0.83581
   6   0   2 232.540 4.41095
   7   0   2 2.26493 0.96955
   8   0   2 182.873 4.89145
   9   0   2 141.644 3.67077
   0   1   2 2103.85 31.0812
  -1  -1  -2 3319.28 36.3806
   1   1   2 3411.40 33.5194
  -2  -1  -2 506.136 4.82876
   2   1   2 448.154 5.78944
  -3  -1  -2 304.837 3.77053
   3   1   2 289.543 3.28328
  -4  -1  -2 66.5049 1.66259
   4   1   2 53.9840 1.56058
  -5  -1  -2 387.452 5.54716
   5   1   2 374.689 5.75776
  -6  -1  -2 182.022 3.76073
   6   1   2 164.672 4.06745
  -7  -1  -2 463.827 8.55812
   7   1   2 479.950 8.10143
  -8  -1  -2 41.3105 2.33800
   8   1   2 37.2063 2.13667
   0   2   2 1748.34 22.6814
  -1  -2  -2 1606.22 22.1758
   1   2   2 1680.60 16.4112
  -2  -2  -2 837.164 9.65153
   2   2   2 906.005 9.97342
  -3  -2  -2 321.350 3.74298
   3   2   2 313.986 3.54084
  -4  -2  -2 248.599 3.39175
   4   2   2 262.219 3.44336
  -5  -2  -2 126.776 2.89387
   5   2   2 131.754 3.12736
  -6  -2  -2 14.3348 1.28502
   6   2   2 9.62632 1.15687
  -7  -2  -2 535.722 9.39588
   7   2   2 528.427 8.42881
  -8  -2  -2 43.8383 2.49544
   8   2   2 45.1388 2.00500
   0   3   2 323.689 4.95780
  -1  -3  -2 1611.48 23.0663
   1   3   2 1663.41 14.9257
  -2  -3  -2 1559.95 17.4622
   2   3   2 1594.33 17.0571
  -3  -3  -2 937.159 9.88990
   3   3   2 937.029 9.42817
  -4  -3  -2 234.281 3.58726
   4   3   2 250.828 3.63238
  -5  -3  -2 31.2575 1.56242
   5   3   2 24.9132 1.52561
  -6  -3  -2 137.757 3.48796
   6   3   2 130.073 3.14739
  -7  -3  -2 238.660 5.57719
   7   3   2 240.821 4.57130
  -8  -3  -2 123.744 4.91666
   8   3   2 118.031 3.62425
   0   4   2 96.8513 2.13867
  -1  -4  -2 600.680 9.98852
   1   4   2 590.985 6.48324
  -2  -4  -2 174.329 3.12487
   2   4   2 168.839 2.74688
  -3  -4  -2 520.722 5.89264
   3   4   2 543.786 6.34993
  -4  -4  -2 43.6134 1.56052
   4   4   2 40.9480 1.56104
  -5  -4  -2 160.500 3.97729
   5   4   2 136.626 3.69648
  -6  -4  -2 42.9612 2.15519
   6   4   2 39.2607 1.76956
  -7  -4  -2 86.6187 3.58243
   7   4   2 76.9413 2.51915
  -8  -4  -2 355.539 9.02194
   8   4   2 371.359 7.54069
   0   5   2 23.6175 1.08905
  -1  -5  -2 73.7270 2.01216
   1   5   2 92.3633 2.07735
  -2  -5  -2 473.643 6.72532
   2   5   2 522.513 6.11083
  -3  -5  -2 105.186 2.25370
   3   5   2 92.9760 2.29704
  -4  -5  -2 655.346 8.45631
   4   5   2 684.998 8.12421
  -5  -5  -2 21.9503 1.25114
   5   5   2 34.7571 1.48974
  -6  -5  -2 466.400 7.05739
   6   5   2 454.607 6.70319
  -7  -5  -2 43.3635 2.52026
   7   5   2 41.4541 1.76791
  -8  -5  -2 175.063 5.32768
   8   5   2 204.804 4.57319
   0   6   2 968.516 10.5927
  -1  -6  -2 144.458 2.65913
   1   6   2 169.222 2.91237
  -2  -6  -2 703.406 9.34452
   2   6   2 737.105 8.35650
  -3  -6  -2 544.498 6.98411
   3   6   2 546.363 7.29936
  -4  -6  -2 359.873 5.68834
   4   6   2 343.245 6.34716
  -5  -6  -2 79.8049 2.46605
   5   6   2 85.4635 2.41570
  -6  -6  -2 87.7932 2.93173
   6   6   2 87.4179 2.51534
  -7  -6  -2 107.379 3.39774
   7   6   2 103.456 2.71713
  -8  -6  -2 36.6168 2.08695
   8   6   2 28.2958 1.49545
   0   7   2 1.07906 0.72163
  -1  -7  -2 454.627 6.23292
   1   7   2 459.229 5.84171
  -2  -7  -2 79.7358 2.13194
   2   7   2 64.8652 2.09043
  -3  -7  -2 63.2362 2.20128
   3   7   2 59.5606 2.12725
  -4  -7  -2 61.3409 1.83357
   4   7   2 54.0431 1.89981
  -5  -7  -2 299.761 5.13460
   5   7   2 266.267 4.88047
  -6  -7  -2 118.841 3.45474
   6   7   2 115.915 2.82991
  -7  -7  -2 29.2984 1.86131
   7   7   2 28.7460 1.81865
   0   8   2 451.827 6.74163
  -1  -8  -2 356.076 5.63118
   1   8   2 391.128 5.26405
  -2  -8  -2 87.7159 2.40608
   2   8   2 88.9081 2.66015
  -3  -8  -2 464.416 5.87289
   3   8   2 467.953 6.53051
  -4  -8  -2 1179.89 13.3509
   4   8   2 1225.93 16.0045
  -5  -8  -2 239.586 4.49277
   5   8   2 220.772 4.35428
  -6  -8  -2 160.475 4.33866
   6   8   2 161.681 3.98718
  -7  -8  -2 6.14160 1.05555
   7   8   2 4.92455 0.91450
   0   9   2 215.803 4.82372
  -1  -9  -2 7.19000 1.23746
   1   9   2 7.46387 1.21016
  -2  -9  -2 170.588 2.89306
   2   9   2 185.391 3.33566
  -3  -9  -2 172.780 3.14763
   3   9   2 163.906 3.27645
  -4  -9  -2 37.1081 1.51973
   4   9   2 34.3503 1.71292
  -5  -9  -2 56.6317 2.15726
   5   9   2 63.8018 2.26318
  -6  -9  -2 117.543 3.14187
   6   9   2 100.155 2.97234
  -7  -9  -2 93.8475 2.53375
   7   9   2 82.0143 3.09593
   0  10   2 264.278 4.24410
  -1 -10  -2 61.1176 1.88066
   1  10   2 57.1081 1.88337
  -2 -10  -2 767.874 9.11535
   2  10   2 823.101 11.0895
  -3 -10  -2 214.935 3.63179
   3  10   2 220.886 4.15094
  -4 -10  -2 4.79020 0.84812
   4  10   2 6.52895 1.17880
  -5 -10  -2 70.7488 2.57238
   5  10   2 76.3039 3.21908
  -6 -10  -2 14.1660 1.16271
   6  10   2 15.8008 1.65250
   0  11   2 2.80194 0.77992
  -1 -11  -2 60.3173 1.95506
   1  11   2 54.5614 1.96406
  -2 -11  -2 430.399 5.63867
   2  11   2 430.353 7.40771
  -3 -11  -2 209.525 3.58172
   3  11   2 246.747 4.36316
  -4 -11  -2 27.4797 1.41432
   4  11   2 34.0461 1.92588
  -5 -11  -2 155.163 3.76038
   5  11   2 154.220 4.48295
   0  12   2 87.5012 2.46354
  -1 -12  -2 398.212 5.78135
   1  12   2 410.165 6.39307
  -2 -12  -2 252.098 4.07173
   2  12   2 261.867 5.00220
  -3 -12  -2 42.8883 1.64418
   3  12   2 50.9631 2.08099
  -4 -12  -2 40.3696 1.63905
   4  12   2 35.7753 2.23429
  -5 -12  -2 38.1835 1.79210
   5  12   2 38.2435 1.83927
   0  13   2 28.9394 1.52847
  -1 -13  -2 201.387 3.90762
   1  13   2 190.310 4.03203
  -2 -13  -2 105.047 2.41882
   2  13   2 105.775 3.63320
  -3 -13  -2 29.0980 1.54201
   3  13   2 31.8456 1.99750
  -4 -13  -2 26.4513 1.31949
   4  13   2 26.7625 1.92408
   0  14   2 11.4848 1.10734
  -1 -14  -2 2.91760 1.15414
   1  14   2 2.24794 0.85635
  -2 -14  -2 155.974 4.58491
   2  14   2 147.578 4.22534
   0   0   3 0.96041 0.69207
   1   0   3 3328.24 33.5893
   2   0   3 2325.49 22.5848
   3   0   3 567.270 5.67892
   4   0   3 0.58028 0.59508
   5   0   3 84.1443 2.64082
   6   0   3 171.870 3.92513
   7   0   3 9.52303 1.26171
   8   0   3 63.7866 2.82592
   0   1   3 2024.60 27.8290
  -1  -1  -3 769.983 8.57287
   1   1   3 728.078 7.87542
  -2  -1  -3 1354.03 13.4469
   2   1   3 1369.76 15.0781
  -3  -1  -3 1126.03 11.2943
   3   1   3 1064.16 10.4149
  -4  -1  -3 1048.73 11.0072
   4   1   3 1096.17 11.8299
  -5  -1  -3 33.4696 1.79979
   5   1   3 25.3467 1.50159
  -6  -1  -3 233.805 4.41448
   6   1   3 221.881 4.42499
  -7  -1  -3 78.5468 2.75401
   7   1   3 75.8151 2.82394
  -8  -1  -3 50.6222 2.75301
   8   1   3 53.0987 2.40763
   0   2   3 400.483 5.52305
  -1  -2  -3 1833.95 21.7970
   1   2   3 1925.41 17.8227
  -2  -2  -3 46.2757 1.36116
   2   2   3 44.9258 1.29130
  -3  -2  -3 503.449 5.93520
   3   2   3 510.423 5.43183
  -4  -2  -3 90.8146 2.28770
   4   2   3 102.675 2.21522
  -5  -2  -3 387.825 6.21310
   5   2   3 390.851 6.46420
  -6  -2  -3 16.1452 1.35291
   6   2   3 15.4847 1.25408
  -7  -2  -3 195.334 4.59930
   7   2   3 184.420 4.22676
  -8  -2  -3 67.1392 3.08814
   8   2   3 70.1678 2.42512
   0   3   3 19.6057 1.03706
  -1  -3  -3 14.3077 1.07207
   1   3   3 20.7877 0.74908
  -2  -3  -3 549.123 7.13150
   2   3   3 569.373 5.95625
  -3  -3  -3 34.3182 1.26954
   3   3   3 21.7476 1.03734
  -4  -3  -3 105.770 2.47330
   4   3   3 120.007 2.64467
  -5  -3  -3 1077.47 15.1594
   5   3   3 1027.54 14.7948
  -6  -3  -3 207.854 4.60893
   6   3   3 208.626 3.93982
  -7  -3  -3 268.641 5.72226
   7   3   3 281.508 4.99354
  -8  -3  -3 87.8907 3.78617
   8   3   3 86.2545 2.84077
   0   4   3 75.7348 2.02143
  -1  -4  -3 1228.19 16.9739
   1   4   3 1215.89 12.3799
  -2  -4  -3 1167.74 15.1009
   2   4   3 1218.77 12.4594
  -3  -4  -3 65.4183 1.82486
   3   4   3 71.2101 1.99425
  -4  -4  -3 163.195 3.21622
   4   4   3 155.067 3.13729
  -5  -4  -3 406.338 7.85388
   5   4   3 392.118 7.41779
  -6  -4  -3 115.874 3.84624
   6   4   3 110.590 2.74130
  -7  -4  -3 30.0752 1.94772
   7   4   3 21.8152 1.45673
  -8  -4  -3 43.6427 3.81801
   8   4   3 49.7280 2.25991
   0   5   3 1095.94 13.1412
  -1  -5  -3 164.491 3.08027
   1   5   3 161.038 2.81343
  -2  -5  -3 491.668 6.96410
   2   5   3 533.797 6.51680
  -3  -5  -3 142.324 3.34746
   3   5   3 166.130 2.92123
  -4  -5  -3 351.590 5.72803
   4   5   3 363.613 5.26990
  -5  -5  -3 679.487 9.18339
   5   5   3 657.697 7.97811
  -6  -5  -3 254.176 5.12052
   6   5   3 261.714 4.45360
  -7  -5  -3 61.1641 3.19160
   7   5   3 64.8892 2.17204
  -8  -5  -3 59.9677 2.88525
   8   5   3 63.5343 2.23955
   0   6   3 9.22615 0.81682
  -1  -6  -3 133.849 2.75178
   1   6   3 162.545 2.89667
  -2  -6  -3 302.491 4.98490
   2   6   3 298.209 4.43456
  -3  -6  -3 379.384 5.76608
   3   6   3 371.440 5.38110
  -4  -6  -3 622.120 10.4544
   4   6   3 642.526 10.3898
  -5  -6  -3 622.501 9.17297
   5   6   3 555.604 8.43861
  -6  -6  -3 47.2942 2.27991
   6   6   3 47.8211 1.88846
  -7  -6  -3 28.4087 2.14077
   7   6   3 23.2334 1.36604
  -8  -6  -3 19.0709 1.56992
   8   6   3 19.4849 1.23265
   0   7   3 183.201 3.37755
  -1  -7  -3 473.813 6.04034
   1   7   3 449.748 6.39463
  -2  -7  -3 95.5777 2.45710
   2   7   3 109.245 2.63555
  -3  -7  -3 521.062 7.81741
   3   7   3 557.099 8.19219
  -4  -7  -3 180.556 3.24676
   4   7   3 186.952 3.77691
  -5  -7  -3 101.564 3.06945
   5   7   3 108.883 2.92328
  -6  -7  -3 190.317 4.32677
   6   7   3 189.078 3.77356
  -7  -7  -3 76.2082 2.92738
   7   7   3 64.9753 2.47330
   0   8   3 96.8398 2.65318
  -1  -8  -3 87.8779 2.55613
   1   8   3 100.305 2.53187
  -2  -8  -3 340.509 5.61782
   2   8   3 385.450 6.87116
  -3  -8  -3 514.034 6.15529
   3   8   3 528.823 6.90954
  -4  -8  -3 42.2757 1.66619
   4   8   3 51.2452 1.95333
  -5  -8  -3 135.199 3.36633
   5   8   3 139.706 3.41391
  -6  -8  -3 265.650 5.67874
   6   8   3 239.520 5.46811
  -7  -8  -3 41.4375 1.95625
   7   8   3 50.9940 2.43814
   0   9   3 43.9088 2.43867
  -1  -9  -3 414.775 5.93020
   1   9   3 444.934 7.03413
  -2  -9  -3 171.467 2.91727
   2   9   3 157.914 3.75604
  -3  -9  -3 204.725 3.45214
   3   9   3 196.971 4.30179
  -4  -9  -3 382.125 5.57601
   4   9   3 422.129 6.95884
  -5  -9  -3 3.41216 0.89133
   5   9   3 3.07651 1.09603
  -6  -9  -3 31.3186 1.71346
   6   9   3 32.8921 2.16838
  -7  -9  -3 117.523 3.12499
   7   9   3 101.693 3.74760
   0  10   3 1137.16 13.8005
  -1 -10  -3 425.267 6.01366
   1  10   3 448.098 6.31218
  -2 -10  -3 453.840 5.90119
   2  10   3 469.852 8.01466
  -3 -10  -3 32.2282 1.41909
   3  10   3 31.0216 1.71177
  -4 -10  -3 231.692 4.05014
   4  10   3 247.201 5.40148
  -5 -10  -3 90.8707 2.68694
   5  10   3 80.2360 3.36423
  -6 -10  -3 13.4353 1.10618
   6  10   3 15.6736 1.60820
   0  11   3 94.5872 2.62197
  -1 -11  -3 83.1224 2.21272
   1  11   3 74.2968 2.49651
  -2 -11  -3 79.0408 2.08129
   2  11   3 75.1502 2.71610
  -3 -11  -3 18.8524 1.18274
   3  11   3 20.3745 1.40527
  -4 -11  -3 30.5891 1.55496
   4  11   3 22.8086 1.82325
  -5 -11  -3 163.102 3.69271
   5  11   3 157.869 4.98749
   0  12   3 77.7312 2.43015
  -1 -12  -3 53.6947 1.70599
   1  12   3 45.6068 1.94408
  -2 -12  -3 107.324 2.38144
   2  12   3 110.619 3.12838
  -3 -12  -3 49.0485 1.71662
   3  12   3 41.8136 2.12129
  -4 -12  -3 92.5209 2.48240
   4  12   3 91.3240 2.97537
  -5 -12  -3 132.988 3.60550
   5  12   3 129.818 3.88797
   0  13   3 277.891 4.88760
  -1 -13  -3 143.405 3.23175
   1  13   3 163.007 3.60239
  -2 -13  -3 10.0334 1.18927
   2  13   3 13.5072 1.44537
  -3 -13  -3 109.940 2.70501
   3  13   3 114.085 4.03852
  -4 -13  -3 12.7128 1.15909
   4  13   3 17.4850 2.38738
   0  14   3 49.2381 2.07405
  -1 -14  -3 159.585 4.35756
   1  14   3 160.698 4.29699
  -2 -14  -3 4.86821 1.08760
   2  14   3 4.65136 0.99819
   0   0   4 2468.09 34.7378
   1   0   4 540.292 6.35217
   2   0   4 57.5967 1.36472
   3   0   4 1583.84 14.5016
   4   0   4 198.322 3.27109
   5   0   4 175.731 3.87217
   6   0   4 46.5664 2.11028
   7   0   4 179.375 4.26255
   8   0   4 46.3434 2.58954
   0   1   4 9999.99 110.398
  -1  -1  -4 988.070 11.6790
   1   1   4 1044.52 10.3537
  -2  -1  -4 477.008 5.74219
   2   1   4 460.198 5.71405
  -3  -1  -4 46.2238 1.46826
   3   1   4 58.0366 1.46440
  -4  -1  -4 1378.35 14.5994
   4   1   4 1382.43 14.9310
  -5  -1  -4 681.284 10.4101
   5   1   4 680.585 9.02327
  -6  -1  -4 5.40065 1.01593
   6   1   4 6.91275 1.04447
  -7  -1  -4 59.7342 2.40480
   7   1   4 55.5909 2.26600
  -8  -1  -4 31.6598 2.19445
   8   1   4 30.1877 1.69235
   0   2   4 53.3278 1.45999
  -1  -2  -4 1078.04 12.2567
   1   2   4 1090.88 11.1727
  -2  -2  -4 536.144 6.88923
   2   2   4 596.830 6.58481
  -3  -2  -4 166.613 2.76746
   3   2   4 173.362 2.59318
  -4  -2  -4 496.848 7.12579
   4   2   4 479.967 5.83649
  -5  -2  -4 280.999 5.55794
   5   2   4 273.153 5.77040
  -6  -2  -4 372.822 6.25893
   6   2   4 370.029 5.63239
  -7  -2  -4 123.559 3.75215
   7   2   4 114.820 3.19034
  -8  -2  -4 212.986 6.14752
   8   2   4 210.643 4.53400
   0   3   4 264.300 4.00815
  -1  -3  -4 120.437 2.36707
   1   3   4 140.217 1.98683
  -2  -3  -4 869.665 11.2882
   2   3   4 915.797 9.27273
  -3  -3  -4 319.341 4.55025
   3   3   4 331.535 4.19456
  -4  -3  -4 253.168 4.59165
   4   3   4 236.515 3.96777
  -5  -3  -4 15.6704 1.82860
   5   3   4 15.2375 1.62887
  -6  -3  -4 176.557 3.88680
   6   3   4 161.813 3.48749
  -7  -3  -4 33.7878 1.96181
   7   3   4 48.3169 2.03634
  -8  -3  -4 41.8839 3.41043
   8   3   4 32.8527 1.73524
   0   4   4 1176.06 13.9878
  -1  -4  -4 415.071 6.34605
   1   4   4 476.770 5.31525
  -2  -4  -4 58.3969 2.02600
   2   4   4 63.2820 1.75236
  -3  -4  -4 321.948 5.49220
   3   4   4 350.459 4.79588
  -4  -4  -4 31.6520 1.54603
   4   4   4 27.8690 1.44804
  -5  -4  -4 1189.34 16.6983
   5   4   4 1193.72 13.0358
  -6  -4  -4 45.3281 2.55738
   6   4   4 44.7628 1.94215
  -7  -4  -4 10.9920 1.52457
   7   4   4 8.27848 1.06608
  -8  -4  -4 15.4819 2.40711
   8   4   4 19.6555 1.22913
   0   5   4 40.5362 1.60530
  -1  -5  -4 403.008 6.20987
   1   5   4 406.836 5.30759
  -2  -5  -4 1341.66 16.2362
   2   5   4 1417.73 17.6616
  -3  -5  -4 664.227 9.35130
   3   5   4 659.274 8.35390
  -4  -5  -4 764.184 10.4393
   4   5   4 762.951 9.53352
  -5  -5  -4 313.530 6.06784
   5   5   4 317.995 4.87231
  -6  -5  -4 139.498 4.52244
   6   5   4 152.881 3.26308
  -7  -5  -4 58.0692 3.27113
   7   5   4 45.6786 1.90053
  -8  -5  -4 108.095 4.66228
   8   5   4 94.8373 2.38729
   0   6   4 11.8273 1.14045
  -1  -6  -4 176.710 3.11904
   1   6   4 161.399 3.06061
  -2  -6  -4 183.545 3.84904
   2   6   4 227.163 3.73470
  -3  -6  -4 141.879 3.47065
   3   6   4 131.292 3.38605
  -4  -6  -4 146.385 3.98104
   4   6   4 138.961 3.23914
  -5  -6  -4 255.221 5.04873
   5   6   4 255.627 4.52706
  -6  -6  -4 491.819 8.56763
   6   6   4 481.446 7.11791
  -7  -6  -4 28.4223 2.06326
   7   6   4 23.0127 1.34093
  -8  -6  -4 21.9331 1.62926
   8   6   4 30.1525 1.65601
   0   7   4 1.75169 0.75422
  -1  -7  -4 529.813 6.74869
   1   7   4 529.640 7.32180
  -2  -7  -4 17.7436 1.24022
   2   7   4 12.9062 1.19573
  -3  -7  -4 235.443 5.38329
   3   7   4 233.744 6.25852
  -4  -7  -4 478.395 6.60367
   4   7   4 515.340 7.62882
  -5  -7  -4 55.7450 2.11860
   5   7   4 60.9215 2.13784
  -6  -7  -4 173.038 4.24835
   6   7   4 174.641 3.52458
  -7  -7  -4 101.690 3.53516
   7   7   4 97.9944 2.74082
   0   8   4 10.8925 1.18112
  -1  -8  -4 601.579 8.52405
   1   8   4 646.639 8.49627
  -2  -8  -4 348.104 6.09900
   2   8   4 365.667 6.87130
  -3  -8  -4 130.989 2.66762
   3   8   4 121.525 3.77981
  -4  -8  -4 125.255 2.85155
   4   8   4 132.660 3.09587
  -5  -8  -4 365.137 5.65919
   5   8   4 344.345 6.07554
  -6  -8  -4 5.47128 1.08934
   6   8   4 5.45691 0.94511
  -7  -8  -4 74.5486 2.48127
   7   8   4 73.0828 2.79650
   0   9   4 556.752 7.49005
  -1  -9  -4 214.478 3.48849
   1   9   4 214.503 4.09160
  -2  -9  -4 91.6124 2.23723
   2   9   4 92.5066 3.00313
  -3  -9  -4 163.327 3.01486
   3   9   4 171.075 4.62822
  -4  -9  -4 19.6248 1.26347
   4   9   4 19.4921 1.74526
  -5  -9  -4 41.7028 1.74040
   5   9   4 43.1168 2.28112
  -6  -9  -4 4.43100 0.99873
   6   9   4 6.43967 1.38314
   0  10   4 207.216 3.82157
  -1 -10  -4 16.3207 1.13072
   1  10   4 14.9096 1.30858
  -2 -10  -4 256.085 3.96673
   2  10   4 269.609 5.13667
  -3 -10  -4 356.747 5.10777
   3  10   4 369.928 7.22478
  -4 -10  -4 168.718 3.25420
   4  10   4 170.755 4.38476
  -5 -10  -4 63.0687 2.16801
   5  10   4 66.4946 3.02090
  -6 -10  -4 214.824 4.36315
   6  10   4 216.728 6.17450
   0  11   4 699.621 9.63744
  -1 -11  -4 235.307 3.96149
   1  11   4 253.758 4.67960
  -2 -11  -4 50.1609 1.66348
   2  11   4 51.5291 2.24226
  -3 -11  -4 60.3312 1.93788
   3  11   4 64.7467 2.47516
  -4 -11  -4 78.7029 2.44337
   4  11   4 89.8886 3.47423
  -5 -11  -4 85.4252 2.36492
   5  11   4 90.5335 3.43618
   0  12   4 0.82479 0.80554
  -1 -12  -4 67.8856 2.21082
   1  12   4 61.2287 2.25022
  -2 -12  -4 143.180 2.76384
   2  12   4 153.207 4.27858
  -3 -12  -4 140.129 2.91661
   3  12   4 156.629 4.17579
  -4 -12  -4 83.2042 2.37359
   4  12   4 71.6440 3.38239
   0  13   4 72.3605 2.55275
  -1 -13  -4 89.5146 2.72281
   1  13   4 81.3903 3.09399
  -2 -13  -4 32.3293 1.71869
   2  13   4 34.4114 1.86936
  -3 -13  -4 10.2380 1.07861
   3  13   4 10.7417 1.62134
   0  14   4 2.17536 0.85579
  -1 -14  -4 17.9474 1.33064
   1  14   4 20.9685 1.74281
  -2 -14  -4 10.8744 1.43205
   2  14   4 14.8130 1.48600
   0   0   5 1.76065 0.71480
   1   0   5 1.06228 0.54574
   2   0   5 1336.61 12.9580
   3   0   5 8.24759 0.72534
   4   0   5 66.3293 2.03211
   5   0   5 42.7451 2.54850
   6   0   5 719.911 9.99691
   7   0   5 89.1915 2.95393
   8   0   5 49.4326 2.78452
   0   1   5 2.65809 0.56834
  -1  -1  -5 1530.31 16.4542
   1   1   5 1592.72 15.3214
  -2  -1  -5 1350.62 14.4734
   2   1   5 1322.06 12.5130
  -3  -1  -5 1805.83 18.6738
   3   1   5 1823.96 16.4886
  -4  -1  -5 249.672 4.07017
   4   1   5 263.517 4.05809
  -5  -1  -5 39.7548 2.41561
   5   1   5 39.5993 2.13709
  -6  -1  -5 356.883 6.25571
   6   1   5 370.432 5.92852
  -7  -1  -5 108.279 3.06281
   7   1   5 90.2924 2.72451
  -8  -1  -5 65.0114 3.19429
   8   1   5 63.0808 2.66987
   0   2   5 386.598 5.01946
  -1  -2  -5 2121.27 22.6232
   1   2   5 2108.66 20.0206
  -2  -2  -5 16.8745 0.98819
   2   2   5 16.4326 0.91605
  -3  -2  -5 289.942 4.46110
   3   2   5 304.230 3.71012
  -4  -2  -5 35.3531 1.68881
   4   2   5 36.6427 1.55327
  -5  -2  -5 348.051 7.17437
   5   2   5 313.283 6.81942
  -6  -2  -5 109.102 3.05536
   6   2   5 109.458 2.90223
  -7  -2  -5 90.6075 3.32183
   7   2   5 88.3697 2.74570
  -8  -2  -5 8.09568 1.71134
   8   2   5 8.70459 1.12860
   0   3   5 684.323 8.36394
  -1  -3  -5 1380.08 14.1772
   1   3   5 1440.96 13.7973
  -2  -3  -5 107.612 2.49225
   2   3   5 112.414 2.14869
  -3  -3  -5 347.403 5.47037
   3   3   5 364.641 4.62294
  -4  -3  -5 449.871 6.99826
   4   3   5 466.612 6.38861
  -5  -3  -5 399.292 6.68285
   5   3   5 383.088 5.85907
  -6  -3  -5 130.686 3.54417
   6   3   5 141.318 3.37066
  -7  -3  -5 171.117 4.37339
   7   3   5 157.737 3.55291
  -8  -3  -5 59.8213 3.45609
   8   3   5 56.8464 2.10655
   0   4   5 418.976 5.59164
  -1  -4  -5 382.742 5.25968
   1   4   5 382.824 5.74507
  -2  -4  -5 1006.51 13.4054
   2   4   5 1087.14 11.8783
  -3  -4  -5 195.627 3.98495
   3   4   5 194.682 3.74529
  -4  -4  -5 39.1114 1.98454
   4   4   5 32.6882 1.61182
  -5  -4  -5 97.1634 3.13567
   5   4   5 90.4272 2.65296
  -6  -4  -5 698.358 11.7790
   6   4   5 634.792 8.91642
  -7  -4  -5 6.44529 1.72664
   7   4   5 3.47112 0.95708
  -8  -4  -5 27.2483 2.69710
   8   4   5 33.2562 1.57735
   0   5   5 67.4458 2.24616
  -1  -5  -5 178.726 3.13456
   1   5   5 158.708 3.43194
  -2  -5  -5 192.009 3.87270
   2   5   5 191.197 3.88150
  -3  -5  -5 52.1928 2.00137
   3   5   5 51.9256 2.00705
  -4  -5  -5 1156.24 20.4997
   4   5   5 1051.02 16.0870
  -5  -5  -5 359.308 6.86404
   5   5   5 364.048 5.81175
  -6  -5  -5 5.28997 1.48120
   6   5   5 4.36334 0.97363
  -7  -5  -5 129.456 4.89681
   7   5   5 148.572 3.53426
  -8  -5  -5 100.810 6.61393
   8   5   5 110.706 2.88580
   0   6   5 107.486 2.72334
  -1  -6  -5 284.099 4.15663
   1   6   5 308.147 5.96088
  -2  -6  -5 261.807 4.70770
   2   6   5 263.898 4.81307
  -3  -6  -5 426.525 6.85782
   3   6   5 474.705 6.84398
  -4  -6  -5 74.1924 2.35920
   4   6   5 85.1481 2.35400
  -5  -6  -5 535.513 8.61935
   5   6   5 502.847 7.91132
  -6  -6  -5 1.79513 1.13576
   6   6   5 1.33544 0.79808
  -7  -6  -5 27.9143 2.25884
   7   6   5 34.2079 1.63606
   0   7   5 58.4137 2.11327
  -1  -7  -5 240.168 3.95330
   1   7   5 214.271 5.31146
  -2  -7  -5 146.436 3.30767
   2   7   5 159.122 4.49316
  -3  -7  -5 918.752 12.2013
   3   7   5 931.598 14.9800
  -4  -7  -5 150.826 3.07169
   4   7   5 132.504 3.39292
  -5  -7  -5 33.0074 1.68062
   5   7   5 29.3409 1.66710
  -6  -7  -5 41.9018 2.22054
   6   7   5 46.0324 1.95400
  -7  -7  -5 42.9939 2.38001
   7   7   5 54.6324 3.01111
   0   8   5 275.364 4.98062
  -1  -8  -5 18.8654 1.60617
   1   8   5 16.8955 1.76247
  -2  -8  -5 530.734 6.57880
   2   8   5 518.890 10.1995
  -3  -8  -5 22.1938 1.26055
   3   8   5 24.6395 1.83750
  -4  -8  -5 161.906 3.24562
   4   8   5 162.850 4.57821
  -5  -8  -5 17.7481 1.30565
   5   8   5 15.1172 1.42172
  -6  -8  -5 65.2624 2.35013
   6   8   5 52.7552 2.80704
  -7  -8  -5 6.59776 1.15285
   7   8   5 7.58301 1.48094
   0   9   5 306.996 5.14906
  -1  -9  -5 4.06110 0.81006
   1   9   5 3.70578 1.10030
  -2  -9  -5 114.595 2.52075
   2   9   5 118.832 5.30242
  -3  -9  -5 58.7733 1.90710
   3   9   5 69.0426 3.02169
  -4  -9  -5 378.893 5.71148
   4   9   5 394.001 7.98992
  -5  -9  -5 72.2312 2.34720
   5   9   5 66.2031 3.57243
  -6  -9  -5 95.3936 2.76128
   6   9   5 97.3877 5.36906
   0  10   5 517.656 7.81168
  -1 -10  -5 66.8222 1.98322
   1  10   5 76.4132 2.85069
  -2 -10  -5 104.588 2.49808
   2  10   5 110.495 4.29835
  -3 -10  -5 103.995 2.56353
   3  10   5 119.452 4.24981
  -4 -10  -5 67.9605 2.14986
   4  10   5 69.1278 3.75535
  -5 -10  -5 121.350 2.95727
   5  10   5 131.241 6.56595
  -6 -10  -5 31.1248 1.40406
   6  10   5 32.9013 2.85461
   0  11   5 669.338 9.26590
  -1 -11  -5 153.048 3.47442
   1  11   5 171.368 4.44200
  -2 -11  -5 175.419 3.21237
   2  11   5 186.133 5.24939
  -3 -11  -5 165.720 3.34719
   3  11   5 160.530 5.39391
  -4 -11  -5 88.1264 2.45047
   4  11   5 85.8954 4.41256
  -5 -11  -5 22.3430 1.22670
   5  11   5 23.9354 2.60884
   0  12   5 1.08238 0.81978
  -1 -12  -5 53.7208 2.19447
   1  12   5 60.1965 2.88963
  -2 -12  -5 200.972 4.11875
   2  12   5 214.509 5.40688
  -3 -12  -5 32.7641 1.43416
   3  12   5 32.3270 2.83970
  -4 -12  -5 48.7212 1.63242
   4  12   5 67.0748 5.56144
   0  13   5 263.366 5.59583
  -1 -13  -5 15.6438 1.37448
   1  13   5 12.4753 1.48808
  -2 -13  -5 54.5319 2.33753
   2  13   5 55.2857 2.51628
  -3 -13  -5 198.579 4.22245
   3  13   5 182.694 7.03115
   0  14   5 101.392 3.11836
  -1 -14  -5 49.1554 2.03220
   1  14   5 40.9452 2.26453
   0   0   6 959.933 13.4001
   1   0   6 2374.63 23.3636
   2   0   6 419.264 5.00542
   3   0   6 543.945 6.39249
   4   0   6 53.3830 1.90975
   5   0   6 696.081 10.4375
   6   0   6 12.9333 1.43338
   7   0   6 3.95375 1.04141
   8   0   6 12.0989 1.89117
   0   1   6 1103.49 11.0402
  -1  -1  -6 29.0681 1.25834
   1   1   6 38.0008 1.33249
  -2  -1  -6 429.920 5.67431
   2   1   6 443.283 4.88503
  -3  -1  -6 923.214 11.0068
   3   1   6 912.898 8.97629
  -4  -1  -6 122.583 2.72635
   4   1   6 98.5593 2.55162
  -5  -1  -6 277.851 5.09241
   5   1   6 291.059 4.80085
  -6  -1  -6 167.003 4.37869
   6   1   6 149.260 3.88391
  -7  -1  -6 146.219 4.15922
   7   1   6 151.246 3.76163
  -8  -1  -6 20.6049 4.03395
   8   1   6 27.7707 2.12902
   0   2   6 366.744 4.74194
  -1  -2  -6 1124.71 12.1886
   1   2   6 1152.68 11.6032
  -2  -2  -6 472.303 6.34523
   2   2   6 477.803 6.08241
  -3  -2  -6 424.816 6.07088
   3   2   6 420.573 4.72971
  -4  -2  -6 51.2799 2.01505
   4   2   6 54.7619 1.95935
  -5  -2  -6 106.038 2.84776
   5   2   6 103.828 2.80827
  -6  -2  -6 418.143 9.14512
   6   2   6 412.640 6.96492
  -7  -2  -6 64.9970 3.21656
   7   2   6 68.2500 2.66298
  -8  -2  -6 37.8682 4.91683
   8   2   6 34.5999 1.93674
   0   3   6 70.2200 1.81867
  -1  -3  -6 1969.32 22.7619
   1   3   6 2054.64 20.4078
  -2  -3  -6 169.588 3.43881
   2   3   6 162.373 2.93630
  -3  -3  -6 835.653 10.6919
   3   3   6 845.907 9.18109
  -4  -3  -6 640.602 8.72982
   4   3   6 623.952 8.17794
  -5  -3  -6 71.0710 2.81500
   5   3   6 64.4341 2.22463
  -6  -3  -6 47.7406 2.36136
   6   3   6 44.4522 2.20557
  -7  -3  -6 46.5188 3.67834
   7   3   6 54.3605 2.41756
  -8  -3  -6 79.7883 6.21362
   8   3   6 77.6943 2.48053
   0   4   6 117.380 2.52230
  -1  -4  -6 799.585 10.6400
   1   4   6 809.287 10.6982
  -2  -4  -6 268.608 5.13795
   2   4   6 278.659 4.26451
  -3  -4  -6 99.1478 2.96340
   3   4   6 114.338 3.04525
  -4  -4  -6 478.359 9.88991
   4   4   6 487.669 8.08195
  -5  -4  -6 84.2382 3.45222
   5   4   6 85.0290 2.56224
  -6  -4  -6 1.36738 1.30536
   6   4   6 1.62890 0.88818
  -7  -4  -6 123.769 6.19852
   7   4   6 115.935 3.24878
   8   4   6 108.759 2.76970
   0   5   6 3.57162 0.97186
  -1  -5  -6 207.049 4.01971
   1   5   6 178.864 3.94957
  -2  -5  -6 78.3679 2.24863
   2   5   6 80.5396 2.50394
  -3  -5  -6 753.765 10.6442
   3   5   6 771.908 11.5496
  -4  -5  -6 96.8945 3.09529
   4   5   6 106.369 2.69294
  -5  -5  -6 107.387 3.94012
   5   5   6 87.4343 2.64964
  -6  -5  -6 97.6751 4.74599
   6   5   6 92.7162 2.87364
  -7  -5  -6 53.2197 4.19430
   7   5   6 45.1861 1.95625
   0   6   6 3.26432 0.99549
  -1  -6  -6 634.463 8.30878
   1   6   6 610.324 9.93999
  -2  -6  -6 449.894 6.81470
   2   6   6 456.801 8.83295
  -3  -6  -6 444.785 8.48918
   3   6   6 440.094 9.58494
  -4  -6  -6 11.0661 1.37944
   4   6   6 7.15762 1.12460
  -5  -6  -6 44.9664 2.17020
   5   6   6 44.6347 2.08207
  -6  -6  -6 317.930 7.72557
   6   6   6 310.356 5.90521
  -7  -6  -6 0.69492 2.22630
   7   6   6 1.53526 0.85601
   0   7   6 198.676 4.58536
  -1  -7  -6 15.2755 1.46265
   1   7   6 8.78999 1.71776
  -2  -7  -6 497.608 9.37583
   2   7   6 540.041 12.7497
  -3  -7  -6 247.098 4.33271
   3   7   6 236.427 5.72685
  -4  -7  -6 575.154 9.43464
   4   7   6 582.838 9.80640
  -5  -7  -6 35.5422 1.86858
   5   7   6 36.1417 1.84907
  -6  -7  -6 20.9702 1.69402
   6   7   6 21.7216 1.58550
  -7  -7  -6 203.342 9.75669
   7   7   6 183.021 5.51122
   0   8   6 212.505 5.77425
  -1  -8  -6 12.5678 1.09329
   1   8   6 11.3026 1.65239
  -2  -8  -6 59.7369 1.98904
   2   8   6 59.8629 3.86865
  -3  -8  -6 240.539 4.06760
   3   8   6 238.359 6.72842
  -4  -8  -6 32.6050 1.75659
   4   8   6 42.1797 2.53770
  -5  -8  -6 346.856 5.54623
   5   8   6 349.422 6.93696
  -6  -8  -6 114.697 3.48540
   6   8   6 109.731 5.25485
   0   9   6 1085.96 16.9231
  -1  -9  -6 44.5843 1.62990
   1   9   6 45.1647 3.44435
  -2  -9  -6 120.789 2.67765
   2   9   6 138.021 5.24573
  -3  -9  -6 354.595 5.44993
   3   9   6 375.603 9.66058
  -4  -9  -6 196.275 3.89085
   4   9   6 193.993 5.64806
  -5  -9  -6 4.89956 0.92887
   5   9   6 5.05278 1.70911
  -6  -9  -6 156.611 3.89821
   6   9   6 151.385 6.81783
   0  10   6 13.7902 1.33748
  -1 -10  -6 3.23768 0.86520
   1  10   6 0.54974 1.21463
  -2 -10  -6 400.707 5.63430
   2  10   6 413.415 10.1976
  -3 -10  -6 48.4219 1.76886
   3  10   6 54.4248 2.85129
  -4 -10  -6 63.2981 2.11691
   4  10   6 57.0266 3.67997
  -5 -10  -6 61.4771 2.18892
   5  10   6 64.9628 4.48610
   0  11   6 65.3754 2.51302
  -1 -11  -6 2.46928 0.90343
   1  11   6 1.83858 1.21848
  -2 -11  -6 4.29451 0.74543
   2  11   6 4.12993 1.23520
  -3 -11  -6 32.0539 1.49529
   3  11   6 30.6214 2.75945
  -4 -11  -6 50.0162 1.72750
   4  11   6 54.6230 5.65154
  -5 -11  -6 3.08801 0.95387
   5  11   6 3.45493 1.59580
   0  12   6 150.680 3.88410
  -1 -12  -6 145.462 3.78625
   1  12   6 128.016 4.26358
  -2 -12  -6 119.498 3.25711
   2  12   6 127.474 3.99624
  -3 -12  -6 70.6700 2.53333
   3  12   6 77.1912 4.90672
  -4 -12  -6 14.8765 1.38862
   4  12   6 17.3763 4.12332
   0  13   6 144.279 3.99803
  -1 -13  -6 50.1997 2.26101
   1  13   6 54.8963 2.40643
  -2 -13  -6 19.5783 1.64387
   2  13   6 24.2463 1.86242
  -3 -13  -6 45.9962 3.17010
   0   0   7 0.96056 0.86794
   1   0   7 986.896 10.3226
   2   0   7 568.297 6.53097
   3   0   7 9.71344 0.90407
   4   0   7 655.885 8.13292
   5   0   7 87.0548 2.84214
   6   0   7 32.8791 1.93625
   7   0   7 9.26688 1.33729
   8   0   7 18.4406 2.47692
   0   1   7 1435.35 14.7332
  -1  -1  -7 746.847 8.21814
   1   1   7 763.491 9.01401
  -2  -1  -7 374.396 5.03039
   2   1   7 348.187 4.49503
  -3  -1  -7 259.025 3.96404
   3   1   7 262.961 3.71495
  -4  -1  -7 182.185 3.57635
   4   1   7 187.061 3.71787
  -5  -1  -7 337.194 5.55256
   5   1   7 329.683 5.24023
  -6  -1  -7 209.365 5.10535
   6   1   7 223.507 4.83248
  -7  -1  -7 65.7713 3.17868
   7   1   7 57.0946 2.57441
  -8  -1  -7 29.5531 3.72084
   8   1   7 30.6276 1.96034
   0   2   7 3.12097 0.71139
  -1  -2  -7 91.7825 2.07121
   1   2   7 81.4061 2.20434
  -2  -2  -7 190.447 3.45901
   2   2   7 184.629 3.34530
  -3  -2  -7 40.5491 1.57246
   3   2   7 47.9232 1.54791
  -4  -2  -7 497.655 8.22273
   4   2   7 504.201 7.19671
  -5  -2  -7 234.759 4.55007
   5   2   7 231.456 4.27895
  -6  -2  -7 45.0815 2.46153
   6   2   7 45.9012 2.05119
  -7  -2  -7 1.14454 1.72444
   7   2   7 1.26374 1.03096
  -8  -2  -7 27.5515 4.13928
   8   2   7 50.3745 1.86755
   0   3   7 685.463 7.86162
  -1  -3  -7 389.184 5.92890
   1   3   7 375.179 5.29576
  -2  -3  -7 300.443 5.18290
   2   3   7 276.309 5.39088
  -3  -3  -7 449.865 6.55620
   3   3   7 436.126 6.09090
  -4  -3  -7 651.257 10.9161
   4   3   7 620.810 9.97321
  -5  -3  -7 530.030 8.02598
   5   3   7 543.717 7.83582
  -6  -3  -7 201.819 6.18370
   6   3   7 202.873 4.51533
  -7  -3  -7 36.3269 3.61492
   7   3   7 41.9272 2.01129
  -8  -3  -7 31.1322 6.42050
   8   3   7 65.6039 2.05361
   0   4   7 203.472 3.57238
  -1  -4  -7 92.3909 2.63911
   1   4   7 89.7569 2.83573
  -2  -4  -7 357.605 6.42651
   2   4   7 408.868 7.53318
  -3  -4  -7 649.757 9.58002
   3   4   7 644.666 11.0889
  -4  -4  -7 41.0571 1.78533
   4   4   7 37.2318 1.65635
  -5  -4  -7 55.6292 2.36760
   5   4   7 54.1481 2.11211
  -6  -4  -7 375.856 9.78219
   6   4   7 388.634 6.51351
  -7  -4  -7 23.2112 3.07104
   7   4   7 30.7803 1.66601
   0   5   7 208.767 4.48838
  -1  -5  -7 510.410 7.88910
   1   5   7 495.270 7.62658
  -2  -5  -7 485.727 7.42664
   2   5   7 512.478 8.66563
  -3  -5  -7 122.764 4.41005
   3   5   7 158.505 4.97393
  -4  -5  -7 452.188 7.22651
   4   5   7 449.533 6.91070
  -5  -5  -7 102.194 3.32648
   5   5   7 81.8848 2.78241
  -6  -5  -7 6.69786 1.75365
   6   5   7 11.1473 1.20254
   7   5   7 43.0031 1.89118
   0   6   7 165.746 4.48177
  -1  -6  -7 252.573 5.18112
   1   6   7 238.832 5.10931
  -2  -6  -7 220.509 5.17595
   2   6   7 234.215 6.78863
  -3  -6  -7 120.739 3.01840
   3   6   7 146.554 3.45614
  -4  -6  -7 401.889 7.26321
   4   6   7 407.206 6.65799
  -5  -6  -7 379.286 6.48068
   5   6   7 376.547 6.48613
  -6  -6  -7 108.247 4.75001
   6   6   7 115.468 3.56821
   7   6   7 13.3447 1.38984
   0   7   7 595.322 12.6630
  -1  -7  -7 87.3124 4.42821
   1   7   7 106.928 4.58201
  -2  -7  -7 46.0380 1.80161
   2   7   7 42.4363 2.39219
  -3  -7  -7 332.055 6.26401
   3   7   7 364.270 8.56235
  -4  -7  -7 13.4129 1.38211
   4   7   7 15.7766 1.69274
  -5  -7  -7 195.381 4.28049
   5   7   7 185.356 4.66944
  -6  -7  -7 123.590 4.14187
   6   7   7 112.800 3.87657
   7   7   7 10.8924 1.32074
   0   8   7 253.071 5.20272
  -1  -8  -7 171.606 3.59556
   1   8   7 165.524 5.48378
  -2  -8  -7 200.354 4.22996
   2   8   7 179.810 6.03530
  -3  -8  -7 209.509 4.43152
   3   8   7 219.145 8.01789
  -4  -8  -7 115.160 3.41173
   4   8   7 126.701 4.70289
  -5  -8  -7 84.6721 2.87812
   5   8   7 86.2949 3.51190
  -6  -8  -7 99.8570 3.59206
   6   8   7 82.7702 4.52065
   0   9   7 211.550 5.07735
  -1  -9  -7 258.860 5.61210
   1   9   7 258.758 8.10153
  -2  -9  -7 9.62944 1.03311
   2   9   7 5.22248 1.77968
  -3  -9  -7 189.084 3.76929
   3   9   7 178.159 8.79093
  -4  -9  -7 25.4940 1.54932
   4   9   7 20.8745 2.65544
  -5  -9  -7 92.6589 2.86983
   5   9   7 98.9260 5.66163
  -6  -9  -7 69.4657 2.65622
   6   9   7 68.0055 3.67155
   0  10   7 1.25878 1.17013
  -1 -10  -7 105.729 3.24569
   1  10   7 119.466 5.08829
  -2 -10  -7 14.1668 1.23930
   2  10   7 13.3742 1.87949
  -3 -10  -7 23.9813 1.35957
   3  10   7 19.0841 2.61311
  -4 -10  -7 89.1851 2.67195
   4  10   7 87.4280 5.30915
  -5 -10  -7 174.000 4.88857
   5  10   7 173.294 7.08743
   0  11   7 433.180 7.71532
  -1 -11  -7 60.0120 2.33332
   1  11   7 60.1109 3.02702
  -2 -11  -7 18.0896 1.66818
   2  11   7 16.5378 2.82282
  -3 -11  -7 44.8904 1.84224
  -4 -11  -7 20.2057 1.29927
   4  11   7 31.8876 3.51518
   0  12   7 105.876 3.50622
  -1 -12  -7 102.737 3.55274
   1  12   7 108.138 4.02704
  -2 -12  -7 292.948 5.94169
   2  12   7 277.275 8.07955
  -3 -12  -7 134.280 3.92744
   3  12   7 105.917 8.15670
   0  13   7 115.477 5.22188
  -1 -13  -7 83.7226 3.43784
   1  13   7 82.4716 3.42567
  -2 -13  -7 18.0313 1.64325
   2  13   7 22.4054 2.20069
   0   0   8 1820.89 26.9319
   1   0   8 28.9776 1.38421
   2   0   8 260.206 3.82095
   3   0   8 62.7855 2.13116
   4   0   8 200.705 4.47872
   5   0   8 14.4657 1.30400
   6   0   8 85.5804 2.91067
   7   0   8 66.4846 2.60034
   8   0   8 146.902 5.90603
   0   1   8 1348.96 15.4141
  -1  -1  -8 122.390 2.70864
   1   1   8 101.272 2.56859
  -2  -1  -8 240.615 3.51298
   2   1   8 253.520 4.45926
  -3  -1  -8 51.1045 1.88293
   3   1   8 37.4523 1.72755
  -4  -1  -8 239.908 4.70178
   4   1   8 241.539 5.39049
  -5  -1  -8 98.2612 2.77788
   5   1   8 100.492 2.81181
  -6  -1  -8 475.411 8.47562
   6   1   8 476.400 7.70194
  -7  -1  -8 56.9767 2.86041
   7   1   8 55.1379 2.43776
  -8  -1  -8 63.8444 4.82763
   8   1   8 67.0117 3.27418
   0   2   8 291.100 4.83505
  -1  -2  -8 305.054 4.48611
   1   2   8 339.618 5.12983
  -2  -2  -8 1034.34 11.6106
   2   2   8 1075.09 13.8037
  -3  -2  -8 204.016 3.78212
   3   2   8 214.573 3.91040
  -4  -2  -8 273.636 4.14594
   4   2   8 285.953 4.75424
  -5  -2  -8 219.643 4.73478
   5   2   8 222.676 4.01035
  -6  -2  -8 8.63920 1.55035
   6   2   8 4.70027 1.07585
  -7  -2  -8 37.9960 3.71689
   7   2   8 45.6393 2.24051
   0   3   8 5.81789 0.98615
  -1  -3  -8 497.897 6.23076
   1   3   8 518.252 7.93013
  -2  -3  -8 185.879 3.49513
   2   3   8 154.015 3.99471
  -3  -3  -8 169.202 4.15962
   3   3   8 187.118 4.32178
  -4  -3  -8 207.585 3.92365
   4   3   8 192.042 3.78066
  -5  -3  -8 360.960 6.45745
   5   3   8 377.256 6.19843
  -6  -3  -8 50.8016 2.56396
   6   3   8 54.6184 2.34741
  -7  -3  -8 82.8608 7.66588
   7   3   8 73.0919 2.68938
   0   4   8 467.667 6.46384
  -1  -4  -8 4.74723 0.94658
   1   4   8 3.13076 1.04795
  -2  -4  -8 76.6361 2.83631
   2   4   8 78.4509 3.30471
  -3  -4  -8 350.012 8.73026
   3   4   8 365.508 7.86262
  -4  -4  -8 1409.92 16.6665
   4   4   8 1370.01 16.6790
  -5  -4  -8 36.9448 1.91257
   5   4   8 33.0573 1.79916
  -6  -4  -8 79.4427 3.89280
   6   4   8 74.2495 2.59350
  -7  -4  -8 23.0714 4.18897
   7   4   8 22.2024 1.47103
   0   5   8 159.632 4.17093
  -1  -5  -8 7.92385 1.25561
   1   5   8 13.4034 1.50576
  -2  -5  -8 176.478 4.80018
   2   5   8 161.504 4.77488
  -3  -5  -8 69.1955 2.38232
   3   5   8 80.9109 2.78026
  -4  -5  -8 32.7953 1.72690
   4   5   8 38.9084 1.86461
  -5  -5  -8 810.455 11.3736
   5   5   8 855.060 12.6110
  -6  -5  -8 89.9357 5.35895
   6   5   8 97.9085 3.05328
   7   5   8 22.4564 1.38868
   0   6   8 82.4917 3.47954
  -1  -6  -8 414.445 8.67185
   1   6   8 413.734 9.61536
  -2  -6  -8 170.227 3.89514
   2   6   8 159.801 5.49381
  -3  -6  -8 597.816 9.48905
   3   6   8 644.873 11.2293
  -4  -6  -8 88.1303 2.65395
   4   6   8 88.2721 2.90955
  -5  -6  -8 19.5721 1.61133
   5   6   8 18.9480 1.45434
  -6  -6  -8 60.1843 3.64698
   6   6   8 59.8447 3.03919
   7   6   8 67.8440 2.39274
   0   7   8 7.67202 0.98680
  -1  -7  -8 175.105 4.06924
   1   7   8 168.274 4.77241
  -2  -7  -8 62.9746 2.30215
   2   7   8 72.5679 3.77798
  -3  -7  -8 153.396 3.70332
   3   7   8 154.424 5.84912
  -4  -7  -8 99.6134 3.13292
   4   7   8 102.093 3.86940
  -5  -7  -8 227.413 4.72328
   5   7   8 239.599 6.31570
  -6  -7  -8 39.4393 2.83804
   6   7   8 37.7151 2.34867
   0   8   8 187.884 4.74257
  -1  -8  -8 473.599 8.71392
   1   8   8 505.691 10.7804
  -2  -8  -8 9.20959 1.21426
   2   8   8 7.85321 2.18088
  -3  -8  -8 29.7865 1.77822
   3   8   8 27.5463 3.33786
  -4  -8  -8 43.5817 2.10327
   4   8   8 39.3652 2.54221
  -5  -8  -8 5.00894 1.27948
   5   8   8 9.02387 1.39024
  -6  -8  -8 25.1827 2.17959
   6   8   8 33.5782 2.45772
   0   9   8 33.1884 2.09700
  -1  -9  -8 185.029 4.82850
   1   9   8 200.785 6.15707
  -2  -9  -8 292.891 5.80510
   2   9   8 286.281 11.3065
  -3  -9  -8 92.5803 3.12665
   3   9   8 111.221 7.49581
  -4  -9  -8 113.409 3.81153
   4   9   8 114.458 6.92670
  -5  -9  -8 65.4615 2.59287
   5   9   8 53.2782 4.14642
   0  10   8 5.95592 1.40822
  -1 -10  -8 75.3405 2.94435
   1  10   8 84.4453 3.90826
  -2 -10  -8 88.3327 2.86278
   2  10   8 90.4317 6.28813
  -3 -10  -8 35.8684 1.73065
   3  10   8 34.6196 6.93133
  -4 -10  -8 4.89340 1.00567
   4  10   8 3.73076 2.35553
  -5 -10  -8 195.810 5.05641
   5  10   8 186.875 7.19587
   0  11   8 132.802 5.18974
  -1 -11  -8 331.436 6.35890
   1  11   8 301.442 9.68318
  -2 -11  -8 3.44354 1.11585
   2  11   8 6.80229 2.26089
  -3 -11  -8 32.6649 1.86406
   3  11   8 38.4312 5.12413
  -4 -11  -8 16.3472 1.44717
   4  11   8 16.2646 2.84872
   0  12   8 348.175 8.38286
  -1 -12  -8 9.46430 1.31489
   1  12   8 9.31369 1.55852
  -2 -12  -8 1.84955 1.02972
   2  12   8 2.75961 2.46303
  -3 -12  -8 64.3426 2.52531
   3  12   8 57.8608 6.74453
   0  13   8 0.75205 1.12699
  -1 -13  -8 35.0463 2.42055
   1  13   8 28.8508 2.27242
   0   0   9 1.90443 1.14107
   1   0   9 220.745 3.66042
   2   0   9 224.969 3.84252
   3   0   9 262.822 5.31489
   4   0   9 96.2960 2.57074
   5   0   9 89.3102 2.59351
   6   0   9 434.138 7.17480
   7   0   9 527.296 11.0248
   0   1   9 8.52161 1.06194
  -1  -1  -9 498.391 6.16720
   1   1   9 491.719 6.67087
  -2  -1  -9 124.792 2.86950
   2   1   9 112.872 3.13858
  -3  -1  -9 250.321 5.16724
   3   1   9 261.721 6.02322
  -4  -1  -9 274.976 4.54407
   4   1   9 290.241 4.88275
  -5  -1  -9 8.74188 1.12731
   5   1   9 8.23122 1.10791
  -6  -1  -9 237.850 4.93044
   6   1   9 221.221 4.34955
  -7  -1  -9 155.862 4.96044
   7   1   9 161.055 4.21086
   0   2   9 367.864 5.22520
  -1  -2  -9 202.335 3.44711
   1   2   9 204.634 3.82654
  -2  -2  -9 278.795 4.40179
   2   2   9 290.618 5.42229
  -3  -2  -9 324.667 6.10368
   3   2   9 307.079 6.75263
  -4  -2  -9 165.609 3.72125
   4   2   9 152.346 3.74290
  -5  -2  -9 12.5500 1.44235
   5   2   9 16.0035 1.31495
  -6  -2  -9 210.101 5.20613
   6   2   9 208.659 4.04840
  -7  -2  -9 4.97088 2.17957
   7   2   9 7.82799 1.22141
   0   3   9 732.919 9.55884
  -1  -3  -9 342.122 5.29487
   1   3   9 305.199 5.84660
  -2  -3  -9 502.196 7.28945
   2   3   9 525.204 9.51822
  -3  -3  -9 245.720 4.59230
   3   3   9 274.403 6.15008
  -4  -3  -9 18.5644 1.57212
   4   3   9 21.4601 1.62246
  -5  -3  -9 85.0516 3.18550
   5   3   9 101.792 2.87562
  -6  -3  -9 59.0544 2.79386
   6   3   9 60.8498 2.59221
  -7  -3  -9 3.96127 2.66520
   7   3   9 0.42134 0.81521
   0   4   9 7.80224 1.19820
  -1  -4  -9 617.492 8.68367
   1   4   9 650.634 10.9713
  -2  -4  -9 51.9569 3.01483
   2   4   9 52.3615 3.87400
  -3  -4  -9 745.644 10.7310
   3   4   9 764.997 11.4815
  -4  -4  -9 125.412 3.27528
   4   4   9 131.634 3.77826
  -5  -4  -9 16.8181 1.51064
   5   4   9 11.9442 1.36793
  -6  -4  -9 176.648 5.39938
   6   4   9 173.708 4.16169
  -7  -4  -9 210.618 11.4640
   7   4   9 217.601 4.23628
   0   5   9 10.2905 1.79994
  -1  -5  -9 513.543 10.9047
   1   5   9 503.756 10.1716
  -2  -5  -9 370.995 6.75211
   2   5   9 396.276 7.87327
  -3  -5  -9 49.9512 2.23801
   3   5   9 45.4785 2.32054
  -4  -5  -9 6.55150 1.13868
   4   5   9 4.63808 1.17317
  -5  -5  -9 388.418 6.25305
   5   5   9 399.295 7.52399
  -6  -5  -9 80.7964 5.91633
   6   5   9 80.8084 2.99264
   7   5   9 77.4437 2.65486
   0   6   9 32.2768 1.63716
  -1  -6  -9 346.417 6.78184
   1   6   9 343.763 5.84251
  -2  -6  -9 219.144 4.67758
   2   6   9 221.060 6.78346
  -3  -6  -9 11.1969 1.35688
   3   6   9 9.11222 1.76963
  -4  -6  -9 451.929 7.89026
   4   6   9 448.602 10.9473
  -5  -6  -9 69.3586 2.66363
   5   6   9 64.3582 3.07967
  -6  -6  -9 52.3253 4.12541
   6   6   9 54.6738 3.21925
   0   7   9 55.4154 2.01446
  -1  -7  -9 359.871 6.65610
   1   7   9 331.861 8.04062
  -2  -7  -9 769.966 12.0265
   2   7   9 732.839 15.6485
  -3  -7  -9 108.018 3.42871
   3   7   9 125.797 5.54159
  -4  -7  -9 4.02605 1.22667
   4   7   9 3.14630 1.47505
  -5  -7  -9 91.7851 3.43009
   5   7   9 87.9836 3.94450
  -6  -7  -9 54.9238 4.25500
   6   7   9 69.5658 2.78934
   0   8   9 50.0592 2.47227
  -1  -8  -9 43.5542 2.02050
   1   8   9 34.1193 2.58546
  -2  -8  -9 247.282 5.98437
   2   8   9 249.578 8.84836
  -3  -8  -9 27.6071 1.81549
   3   8   9 21.4576 2.74674
  -4  -8  -9 21.4994 2.01624
   4   8   9 21.4263 2.21784
  -5  -8  -9 4.84669 1.34027
   5   8   9 6.82390 1.38836
  -6  -8  -9 20.3229 2.89262
   6   8   9 29.7335 2.33100
   0   9   9 2.66119 1.16915
  -1  -9  -9 147.123 4.43113
   1   9   9 138.917 6.17660
  -2  -9  -9 261.827 6.01993
   2   9   9 249.239 8.82238
  -3  -9  -9 168.970 4.40153
   3   9   9 161.802 9.82101
  -4  -9  -9 6.14316 1.36374
   4   9   9 4.14785 1.96583
  -5  -9  -9 197.562 5.81286
   5   9   9 242.514 6.40721
   0  10   9 496.570 10.6050
  -1 -10  -9 51.8607 2.50799
   1  10   9 47.7745 3.60244
  -2 -10  -9 52.2951 2.66279
   2  10   9 51.3734 4.91909
  -3 -10  -9 147.430 4.83059
   3  10   9 160.634 9.32791
  -4 -10  -9 116.270 3.83475
   4  10   9 123.458 5.75080
   0  11   9 11.4535 1.96333
  -1 -11  -9 55.0567 2.45977
   1  11   9 55.9637 3.49902
  -2 -11  -9 112.423 3.52275
   2  11   9 104.243 6.16471
  -3 -11  -9 38.5627 2.15758
   3  11   9 47.2938 5.12894
   0  12   9 0.47898 1.14012
  -1 -12  -9 42.9712 2.30638
   1  12   9 40.7381 3.39627
  -2 -12  -9 9.12211 1.19787
   2  12   9 13.2998 2.73384
   0   0  10 17.6724 1.77155
   1   0  10 2.22482 0.88207
   2   0  10 18.9020 1.62755
   3   0  10 2.22307 0.88896
   4   0  10 7.25747 1.10885
   5   0  10 74.9981 2.44949
   6   0  10 237.761 5.81039
   7   0  10 54.7133 2.61987
   0   1  10 85.2138 2.37718
  -1  -1 -10 188.665 3.62066
   1   1  10 196.348 3.89372
  -2  -1 -10 293.735 5.41987
   2   1  10 318.090 6.46141
  -3  -1 -10 215.052 4.10335
   3   1  10 215.496 3.94877
  -4  -1 -10 15.5780 1.25260
   4   1  10 16.7403 1.47964
  -5  -1 -10 112.406 3.48881
   5   1  10 135.502 3.39682
  -6  -1 -10 101.049 3.98120
   6   1  10 93.0066 3.02104
  -7  -1 -10 69.8902 3.24493
   7   1  10 68.4847 2.73451
   0   2  10 21.3183 1.43015
  -1  -2 -10 1245.12 15.2543
   1   2  10 1321.34 15.9616
  -2  -2 -10 3.72431 1.33993
   2   2  10 3.70005 1.40321
  -3  -2 -10 376.452 5.85984
   3   2  10 390.230 6.28606
  -4  -2 -10 239.912 5.15037
   4   2  10 234.487 4.80411
  -5  -2 -10 23.7527 1.80756
   5   2  10 22.9512 1.68978
  -6  -2 -10 3.67643 1.34146
   6   2  10 4.39048 1.06794
  -7  -2 -10 473.389 14.0613
   7   2  10 507.549 9.75794
   0   3  10 3.02761 1.08473
  -1  -3 -10 147.216 4.31216
   1   3  10 127.096 4.77800
  -2  -3 -10 14.5325 1.36359
   2   3  10 13.1202 1.53019
  -3  -3 -10 148.737 3.14968
   3   3  10 142.373 3.86290
  -4  -3 -10 103.963 3.02243
   4   3  10 102.987 3.37873
  -5  -3 -10 132.181 4.13874
   5   3  10 123.062 3.50510
  -6  -3 -10 97.3939 4.00459
   6   3  10 108.936 3.25474
  -7  -3 -10 59.0948 5.44839
   7   3  10 53.3234 1.97013
   0   4  10 1356.39 22.0096
  -1  -4 -10 148.584 3.64986
   1   4  10 142.750 4.27445
  -2  -4 -10 51.1533 1.84688
   2   4  10 51.1318 2.53997
  -3  -4 -10 101.944 3.09116
   3   4  10 105.511 3.44477
  -4  -4 -10 120.684 3.00377
   4   4  10 133.489 4.11203
  -5  -4 -10 37.0008 2.09327
   5   4  10 36.1783 1.97028
  -6  -4 -10 148.667 5.51763
   6   4  10 135.365 3.67549
   7   4  10 23.0097 1.74114
   0   5  10 3.13832 0.85247
  -1  -5 -10 145.020 3.48874
   1   5  10 146.293 3.66349
  -2  -5 -10 260.873 5.92594
   2   5  10 340.256 6.79576
  -3  -5 -10 102.201 3.20511
   3   5  10 101.164 3.42366
  -4  -5 -10 119.923 2.98839
   4   5  10 128.590 3.95775
  -5  -5 -10 40.8798 2.22893
   5   5  10 47.8211 2.37520
  -6  -5 -10 18.4770 2.61855
   6   5  10 11.8339 1.65445
   0   6  10 49.3779 2.02500
  -1  -6 -10 114.022 3.15927
   1   6  10 117.332 3.36908
  -2  -6 -10 214.424 4.94314
   2   6  10 231.817 5.96476
  -3  -6 -10 47.5852 2.19892
   3   6  10 49.4242 3.39256
  -4  -6 -10 60.4141 2.43099
   4   6  10 61.5334 3.44656
  -5  -6 -10 7.96668 1.31971
   5   6  10 5.02389 1.52509
  -6  -6 -10 147.548 6.42929
   6   6  10 157.311 4.59944
   0   7  10 256.674 4.98654
  -1  -7 -10 384.935 7.06151
   1   7  10 373.490 8.81779
  -2  -7 -10 623.940 10.5842
   2   7  10 633.566 14.9912
  -3  -7 -10 68.3172 2.72484
   3   7  10 64.5898 3.68870
  -4  -7 -10 61.3263 2.87882
   4   7  10 67.1442 3.21659
  -5  -7 -10 130.713 4.46003
   5   7  10 135.904 4.54290
  -6  -7 -10 93.4416 10.3937
   6   7  10 114.240 3.86665
   0   8  10 115.616 3.96380
  -1  -8 -10 4.48430 0.86767
   1   8  10 3.21827 1.53050
  -2  -8 -10 116.011 3.72225
   2   8  10 128.579 5.58586
  -3  -8 -10 190.282 4.88307
   3   8  10 203.728 6.55757
  -4  -8 -10 289.918 6.84123
   4   8  10 311.749 7.57245
  -5  -8 -10 6.64775 1.31683
   5   8  10 5.66743 1.41844
   0   9  10 243.842 6.91387
  -1  -9 -10 17.2776 1.78298
   1   9  10 21.5514 2.89749
  -2  -9 -10 154.381 4.92975
   2   9  10 121.105 7.64961
  -3  -9 -10 30.2874 1.86144
   3   9  10 30.2641 3.47319
  -4  -9 -10 25.3406 1.78417
   4   9  10 26.1220 2.66730
  -5  -9 -10 48.0321 3.90714
   5   9  10 48.6731 3.83484
   0  10  10 192.620 5.73886
  -1 -10 -10 172.774 4.65520
   1  10  10 155.658 6.40526
  -2 -10 -10 26.5742 1.91894
   2  10  10 23.4739 4.16312
  -3 -10 -10 70.1543 3.71855
   3  10  10 82.5621 5.98241
  -4 -10 -10 2.12971 1.16328
   4  10  10 1.93829 1.51619
   0  11  10 2.49300 1.27759
  -1 -11 -10 58.8894 2.49850
   1  11  10 53.8868 3.80818
  -2 -11 -10 53.1760 2.92978
   2  11  10 63.0710 5.13151
  -3 -11 -10 59.5538 3.01837
   3  11  10 77.3517 5.17503
   0  12  10 327.346 9.55276
  -1 -12 -10 26.7095 2.99629
   1  12  10 24.9383 3.16245
   0   0  11 0.46233 1.26881
   1   0  11 150.886 4.23400
   2   0  11 22.4755 1.44049
   3   0  11 55.6211 2.32645
   4   0  11 173.920 4.15360
   5   0  11 195.081 4.44881
   6   0  11 25.9281 1.74151
   7   0  11 214.101 5.39300
   0   1  11 443.144 7.40123
  -1  -1 -11 64.6277 2.94855
   1   1  11 75.1119 2.73506
  -2  -1 -11 262.312 3.95926
   2   1  11 250.591 4.35992
  -3  -1 -11 41.4722 1.95454
   3   1  11 44.6699 2.01348
  -4  -1 -11 129.372 3.75676
   4   1  11 141.081 3.82644
  -5  -1 -11 155.180 4.21460
   5   1  11 148.391 3.68595
  -6  -1 -11 85.7740 3.51378
   6   1  11 106.005 3.12537
  -7  -1 -11 155.529 4.90312
   7   1  11 149.589 4.05992
   0   2  11 1895.77 25.2740
  -1  -2 -11 3.72373 0.92161
   1   2  11 3.31157 1.02479
  -2  -2 -11 96.2720 2.69384
   2   2  11 95.0172 3.05765
  -3  -2 -11 11.7508 1.40309
   3   2  11 9.16913 1.32384
  -4  -2 -11 248.164 6.27825
   4   2  11 266.726 5.24420
  -5  -2 -11 16.6231 1.75046
   5   2  11 11.8566 1.37077
  -6  -2 -11 28.8164 2.13488
   6   2  11 25.3362 1.65791
   0   3  11 386.296 5.83274
  -1  -3 -11 153.720 3.00032
   1   3  11 130.720 3.58504
  -2  -3 -11 64.4721 2.25695
   2   3  11 63.8763 2.87945
  -3  -3 -11 51.4738 2.10915
   3   3  11 49.9193 2.31929
  -4  -3 -11 52.5142 2.41142
   4   3  11 46.0645 2.10954
  -5  -3 -11 134.135 4.25746
   5   3  11 152.726 4.00741
  -6  -3 -11 40.1354 2.70315
   6   3  11 37.6281 1.69982
   0   4  11 3.25387 1.03055
  -1  -4 -11 730.199 9.92913
   1   4  11 731.888 11.5789
  -2  -4 -11 262.810 4.73769
   2   4  11 265.054 6.51828
  -3  -4 -11 344.637 6.32747
   3   4  11 369.641 6.87650
  -4  -4 -11 139.016 3.46417
   4   4  11 135.447 4.27190
  -5  -4 -11 35.6057 2.07875
   5   4  11 30.8617 1.81260
  -6  -4 -11 27.7712 2.30944
   6   4  11 23.0068 1.39659
   0   5  11 387.815 6.56170
  -1  -5 -11 43.4275 1.94955
   1   5  11 53.1972 2.41087
  -2  -5 -11 7.72867 1.09441
   2   5  11 12.0097 1.42762
  -3  -5 -11 156.408 3.83641
   3   5  11 160.066 4.32254
  -4  -5 -11 32.8828 1.69972
   4   5  11 34.0323 1.97629
  -5  -5 -11 109.720 3.72702
   5   5  11 88.4245 3.49241
  -6  -5 -11 150.049 6.07935
   6   5  11 129.447 3.72915
   0   6  11 231.933 4.81904
  -1  -6 -11 9.15350 1.20827
   1   6  11 13.7715 1.50108
  -2  -6 -11 58.8234 2.45075
   2   6  11 72.8005 3.63919
  -3  -6 -11 18.2504 1.53448
   3   6  11 27.9184 2.63126
  -4  -6 -11 130.890 3.43300
   4   6  11 142.305 5.02164
  -5  -6 -11 59.1846 2.69931
   5   6  11 68.4469 2.82208
   6   6  11 42.7825 1.81238
   0   7  11 0.40944 1.05430
  -1  -7 -11 272.548 5.18845
   1   7  11 283.580 7.05204
  -2  -7 -11 95.9326 3.39802
   2   7  11 127.274 4.83315
  -3  -7 -11 47.1343 2.37407
   3   7  11 45.0583 2.97527
  -4  -7 -11 153.667 4.64793
   4   7  11 166.946 5.78554
  -5  -7 -11 93.4194 3.79466
   5   7  11 87.5428 3.72999
   0   8  11 36.7235 2.40585
  -1  -8 -11 327.017 7.29249
   1   8  11 306.489 8.17985
  -2  -8 -11 63.7679 2.79771
   2   8  11 67.8043 4.19875
  -3  -8 -11 104.685 3.44649
   3   8  11 90.6809 3.81267
  -4  -8 -11 29.5548 1.83889
   4   8  11 29.1166 2.23638
  -5  -8 -11 6.93853 1.11748
   5   8  11 7.82620 1.68590
   0   9  11 99.8214 4.03531
  -1  -9 -11 119.365 4.23557
   1   9  11 122.631 5.37061
  -2  -9 -11 65.6855 2.97908
   2   9  11 55.2865 5.46490
  -3  -9 -11 56.2803 2.60359
   3   9  11 56.2823 4.42746
  -4  -9 -11 27.5089 2.59878
   4   9  11 21.4795 2.12883
   0  10  11 226.421 5.98892
  -1 -10 -11 53.7973 2.70910
   1  10  11 47.2766 3.60942
  -2 -10 -11 2.33085 1.13027
   2  10  11 4.62128 2.30439
  -3 -10 -11 33.6799 2.56807
   3  10  11 35.7043 3.55276
   0  11  11 15.8741 2.05927
  -1 -11 -11 9.09571 1.39536
   1  11  11 5.55671 2.06925
  -2 -11 -11 82.6877 3.45406
   2  11  11 58.7943 4.32944
   0   0  12 337.137 7.43969
   1   0  12 156.169 3.25587
   2   0  12 22.4978 1.54203
   3   0  12 5.24180 1.13840
   4   0  12 19.5965 1.66791
   5   0  12 1.72402 0.95294
   6   0  12 4.57789 1.01411
   0   1  12 122.735 3.16480
  -1  -1 -12 368.850 5.49512
   1   1  12 355.372 6.49512
  -2  -1 -12 673.867 8.86304
   2   1  12 697.799 10.0782
  -3  -1 -12 93.7489 3.15806
   3   1  12 83.4728 3.11748
  -4  -1 -12 61.3885 2.63210
   4   1  12 52.5931 2.49829
  -5  -1 -12 120.218 3.74887
   5   1  12 123.761 3.54821
  -6  -1 -12 25.4486 1.75207
   6   1  12 21.3530 1.41113
   0   2  12 82.2507 2.64457
  -1  -2 -12 80.9111 2.63983
   1   2  12 97.8658 3.13904
  -2  -2 -12 236.963 4.58395
   2   2  12 213.737 4.46561
  -3  -2 -12 51.6834 2.47875
   3   2  12 67.5906 2.57558
  -4  -2 -12 126.712 4.46324
   4   2  12 116.475 3.23250
  -5  -2 -12 10.4474 1.33190
   5   2  12 9.25416 1.23115
  -6  -2 -12 126.010 3.63037
   6   2  12 118.385 3.04644
   0   3  12 1601.34 20.3538
  -1  -3 -12 157.023 3.48880
   1   3  12 183.433 5.00437
  -2  -3 -12 162.739 3.98233
   2   3  12 171.951 5.04121
  -3  -3 -12 135.119 3.45672
   3   3  12 153.025 3.78364
  -4  -3 -12 19.9300 1.70317
   4   3  12 18.5558 1.41936
  -5  -3 -12 23.4905 1.87414
   5   3  12 22.8252 1.46364
  -6  -3 -12 125.172 4.77737
   6   3  12 144.761 3.04156
   0   4  12 166.887 4.35648
  -1  -4 -12 119.796 2.94951
   1   4  12 128.633 4.03139
  -2  -4 -12 1.03318 0.87721
   2   4  12 1.36047 1.23236
  -3  -4 -12 98.2208 3.06606
   3   4  12 99.1990 3.49261
  -4  -4 -12 206.495 4.54585
   4   4  12 204.744 4.77999
  -5  -4 -12 219.950 6.14625
   5   4  12 243.645 4.97987
  -6  -4 -12 94.9194 3.17556
   6   4  12 101.847 3.01649
   0   5  12 96.8263 3.31715
  -1  -5 -12 442.035 7.39455
   1   5  12 461.199 8.80398
  -2  -5 -12 7.15970 1.07563
   2   5  12 12.1845 1.40487
  -3  -5 -12 37.6277 1.93279
   3   5  12 33.0756 2.12436
  -4  -5 -12 101.438 2.93155
   4   5  12 97.3141 3.73793
  -5  -5 -12 109.170 3.79570
   5   5  12 104.353 3.42786
   0   6  12 27.3696 1.70365
  -1  -6 -12 174.939 3.96402
   1   6  12 166.332 5.29498
  -2  -6 -12 73.3474 2.48007
   2   6  12 78.2844 3.60990
  -3  -6 -12 235.710 5.02676
   3   6  12 242.695 7.50955
  -4  -6 -12 82.2877 2.99127
   4   6  12 97.6015 4.34268
  -5  -6 -12 29.4463 2.23131
   5   6  12 37.0156 2.15155
   0   7  12 91.9548 3.53698
  -1  -7 -12 155.596 3.60712
   1   7  12 166.782 5.02738
  -2  -7 -12 191.048 4.61782
   2   7  12 201.419 6.01906
  -3  -7 -12 226.660 6.01685
   3   7  12 234.419 6.45414
  -4  -7 -12 70.4797 3.17756
   4   7  12 75.4833 3.60413
  -5  -7 -12 1.69432 0.93461
   5   7  12 2.55255 1.18803
   0   8  12 15.6789 1.65423
  -1  -8 -12 41.2546 2.71574
   1   8  12 49.1518 2.64368
  -2  -8 -12 66.1523 3.06623
   2   8  12 74.8371 3.85587
  -3  -8 -12 2.39588 0.87269
   3   8  12 5.12581 1.22464
  -4  -8 -12 23.3313 1.66817
   4   8  12 37.6779 2.76297
   0   9  12 80.1635 3.51895
  -1  -9 -12 36.7061 2.41319
   1   9  12 45.8405 3.21311
  -2  -9 -12 35.1793 2.06195
   2   9  12 41.9662 4.27418
  -3  -9 -12 18.8195 1.82573
   3   9  12 14.0879 2.52192
   0  10  12 32.7128 2.38436
  -1 -10 -12 105.061 3.94078
   1  10  12 119.052 6.52941
  -2 -10 -12 17.6937 1.63481
   2  10  12 17.4861 2.63942
   0   0  13 1.29425 1.25092
   1   0  13 13.9877 1.34763
   2   0  13 328.961 6.05146
   3   0  13 37.5354 1.99747
   4   0  13 9.78969 1.35278
   5   0  13 26.2910 1.58079
   6   0  13 68.1154 2.38816
   0   1  13 306.856 5.46187
  -1  -1 -13 85.8562 2.63229
   1   1  13 98.7985 3.19490
  -2  -1 -13 21.9054 1.42165
   2   1  13 24.9097 1.68321
  -3  -1 -13 269.813 5.75240
   3   1  13 293.421 5.58480
  -4  -1 -13 21.3283 1.84077
   4   1  13 26.2869 1.76804
  -5  -1 -13 262.567 5.28664
   5   1  13 249.925 4.90535
  -6  -1 -13 20.2268 1.37737
   6   1  13 26.5444 1.41327
   0   2  13 1.27787 0.96364
  -1  -2 -13 164.431 3.94196
   1   2  13 156.557 4.42717
  -2  -2 -13 8.70859 1.27870
   2   2  13 10.6373 1.48663
  -3  -2 -13 225.953 5.43969
   3   2  13 239.070 5.46484
  -4  -2 -13 73.7735 2.83588
   4   2  13 65.5687 2.46513
  -5  -2 -13 49.2185 2.20519
   5   2  13 36.2456 1.79603
   0   3  13 1.19345 1.04069
  -1  -3 -13 317.798 5.90233
   1   3  13 342.124 7.17872
  -2  -3 -13 178.453 3.99254
   2   3  13 187.813 4.94198
  -3  -3 -13 100.939 3.23406
   3   3  13 106.969 3.26607
  -4  -3 -13 114.302 3.60008
   4   3  13 104.772 3.07360
  -5  -3 -13 37.9995 2.11028
   5   3  13 40.7751 1.74795
   0   4  13 33.2952 2.12440
  -1  -4 -13 48.6976 2.23653
   1   4  13 55.9206 2.69497
  -2  -4 -13 317.054 6.15801
   2   4  13 309.836 7.14425
  -3  -4 -13 59.9998 2.42280
   3   4  13 61.8237 2.64838
  -4  -4 -13 16.6204 1.40504
   4   4  13 19.1177 1.35669
  -5  -4 -13 47.5687 2.49613
   5   4  13 50.4697 2.49455
   0   5  13 176.168 4.61529
  -1  -5 -13 143.867 3.76810
   1   5  13 142.427 4.27916
  -2  -5 -13 52.1225 2.29473
   2   5  13 45.4657 2.25610
  -3  -5 -13 308.970 5.97782
   3   5  13 293.542 7.07143
  -4  -5 -13 26.1980 1.42891
   4   5  13 26.6548 1.90987
  -5  -5 -13 10.2842 1.25536
   5   5  13 7.44439 1.14238
   0   6  13 10.3107 1.24987
  -1  -6 -13 229.947 4.76310
   1   6  13 233.615 6.36115
  -2  -6 -13 38.6615 1.79669
   2   6  13 37.8942 2.46259
  -3  -6 -13 151.590 3.71114
   3   6  13 156.849 4.70017
  -4  -6 -13 48.0130 2.26939
   4   6  13 56.4686 2.70184
   0   7  13 22.6417 1.93441
  -1  -7 -13 38.7771 2.10054
   1   7  13 45.6959 2.59796
  -2  -7 -13 64.6068 2.11478
   2   7  13 64.6115 3.06723
  -3  -7 -13 34.4704 1.78554
   3   7  13 30.4569 2.04625
  -4  -7 -13 92.6924 3.75779
   4   7  13 108.349 3.67917
   0   8  13 66.1958 3.34739
  -1  -8 -13 140.702 4.43062
   1   8  13 126.808 4.59654
  -2  -8 -13 160.023 5.51905
   2   8  13 193.235 6.38650
  -3  -8 -13 64.8377 3.52250
   3   8  13 57.3303 3.09967
   0   9  13 87.0992 4.36440
  -1  -9 -13 15.0785 1.68844
   1   9  13 11.2873 2.02280
  -2  -9 -13 51.0180 3.12649
   2   9  13 64.3239 4.34574
   0   0  14 68.6108 3.53420
   1   0  14 154.167 3.83535
   2   0  14 18.0534 1.48498
   3   0  14 255.736 5.53013
   4   0  14 0.69241 0.90393
   5   0  14 420.581 8.28020
   0   1  14 4.14859 1.09190
  -1  -1 -14 86.7850 2.70779
   1   1  14 82.2874 3.25221
  -2  -1 -14 30.9926 1.75788
   2   1  14 36.3767 1.94679
  -3  -1 -14 31.4683 1.90193
   3   1  14 33.1102 1.96339
  -4  -1 -14 53.4261 2.44580
   4   1  14 44.4150 1.94181
  -5  -1 -14 13.6291 1.21206
   5   1  14 13.4851 1.13311
   0   2  14 7.48431 1.36153
  -1  -2 -14 142.680 3.72455
   1   2  14 144.953 4.32535
  -2  -2 -14 260.927 5.43973
   2   2  14 286.294 5.69561
  -3  -2 -14 41.7762 2.04085
   3   2  14 39.9228 2.03807
  -4  -2 -14 2.73478 0.94451
   4   2  14 2.90014 0.86088
  -5  -2 -14 25.0470 1.50160
   5   2  14 28.1244 1.39077
   0   3  14 422.329 8.74294
  -1  -3 -14 15.6201 1.54754
   1   3  14 16.3646 1.74632
  -2  -3 -14 51.1780 2.26910
   2   3  14 54.6427 2.65662
  -3  -3 -14 97.9082 3.06987
   3   3  14 89.8852 3.11624
  -4  -3 -14 64.7613 2.61527
   4   3  14 79.6655 2.41528
  -5  -3 -14 72.7502 2.46440
   5   3  14 61.3975 2.55264
   0   4  14 20.8309 1.80863
  -1  -4 -14 321.206 6.53244
   1   4  14 316.899 7.53825
  -2  -4 -14 4.27736 1.06730
   2   4  14 4.21148 1.14247
  -3  -4 -14 14.6299 1.35506
   3   4  14 14.1536 1.33576
  -4  -4 -14 62.5697 2.35987
   4   4  14 63.4066 2.40162
   0   5  14 70.9413 2.84867
  -1  -5 -14 110.889 3.30080
   1   5  14 115.752 3.43287
  -2  -5 -14 96.1547 2.78111
   2   5  14 94.3588 3.86753
  -3  -5 -14 63.4714 2.29848
   3   5  14 72.9327 3.16775
  -4  -5 -14 76.9462 2.97729
   4   5  14 85.4046 3.41057
   0   6  14 63.6956 3.12824
  -1  -6 -14 0.63630 0.77059
   1   6  14 1.10130 1.13997
  -2  -6 -14 402.223 7.03698
   2   6  14 411.773 8.73456
  -3  -6 -14 25.0051 1.53851
   3   6  14 29.8014 2.00332
  -4  -6 -14 120.084 3.77324
   4   6  14 108.782 3.58360
   0   7  14 102.611 3.37671
  -1  -7 -14 85.0730 2.78821
   1   7  14 81.1153 3.43253
  -2  -7 -14 7.07378 1.15050
   2   7  14 10.5043 1.40115
  -3  -7 -14 79.2364 3.37476
   3   7  14 67.0246 3.62556
   0   8  14 56.0726 3.99779
  -1  -8 -14 11.8437 1.78120
   1   8  14 17.5429 1.98253
  -2  -8 -14 129.061 4.41174
   2   8  14 115.534 5.63656
   0   0  15 1.90488 1.49220
   1   0  15 7.05005 1.25709
   2   0  15 108.708 3.08422
   3   0  15 3.71881 1.02893
   4   0  15 57.1107 2.19579
   0   1  15 266.794 5.88985
  -1  -1 -15 22.8759 1.71794
   1   1  15 17.4957 1.84797
  -2  -1 -15 10.8187 1.30306
   2   1  15 13.1513 1.49265
  -3  -1 -15 3.89950 0.94563
   3   1  15 7.07111 1.07874
  -4  -1 -15 135.262 3.38729
   4   1  15 124.514 3.25011
   0   2  15 51.3310 2.86842
  -1  -2 -15 64.5691 2.74635
   1   2  15 68.4169 3.49831
  -2  -2 -15 33.9391 1.71378
   2   2  15 30.8959 1.92004
  -3  -2 -15 2.32201 0.90912
   3   2  15 2.24856 0.86233
  -4  -2 -15 9.20290 1.01906
   4   2  15 9.44888 1.02490
   0   3  15 201.142 5.97585
  -1  -3 -15 185.025 4.43570
   1   3  15 172.362 5.43121
  -2  -3 -15 35.2048 1.87411
   2   3  15 32.2245 1.86941
  -3  -3 -15 154.611 3.96847
   3   3  15 156.317 3.78136
  -4  -3 -15 245.866 5.06626
   4   3  15 249.760 6.83536
   0   4  15 0.75899 0.97410
  -1  -4 -15 14.0810 1.43966
   1   4  15 14.3224 1.48974
  -2  -4 -15 125.337 3.33991
   2   4  15 133.296 3.24610
  -3  -4 -15 24.3904 1.40519
   3   4  15 26.2798 1.68774
  -4  -4 -15 76.1904 2.69258
   4   4  15 70.9218 2.87395
   0   5  15 45.0180 2.05169
  -1  -5 -15 17.0271 1.43185
   1   5  15 14.5986 2.13481
  -2  -5 -15 2.91333 0.84010
   2   5  15 2.66188 1.05274
  -3  -5 -15 168.143 3.72959
   3   5  15 168.864 4.36980
   0   6  15 16.4378 1.80703
  -1  -6 -15 225.423 6.02225
   1   6  15 247.442 6.60238
  -2  -6 -15 13.3968 1.45728
   2   6  15 15.5566 1.90533
  -3  -6 -15 17.8558 2.73810
   3   6  15 9.00023 2.06790
   0   7  15 37.1470 2.34834
  -1  -7 -15 87.9152 3.76216
   1   7  15 99.9224 3.57578
  -2  -7 -15 48.2201 2.78393
   2   7  15 55.3234 3.96092
   0   0  16 19.3656 2.33661
   1   0  16 95.5942 3.06927
   2   0  16 29.2340 1.65819
   3   0  16 37.6952 2.06483
   0   1  16 4.46927 1.15543
  -1  -1 -16 72.7522 2.65860
   1   1  16 62.0947 2.58998
  -2  -1 -16 1.10733 0.81987
   2   1  16 1.10678 0.92091
  -3  -1 -16 29.1158 1.62439
   3   1  16 25.5998 1.49957
   0   2  16 175.304 5.66295
  -1  -2 -16 8.48214 1.22237
   1   2  16 4.15702 1.33324
  -2  -2 -16 320.186 5.87001
   2   2  16 301.848 7.01648
  -3  -2 -16 30.7684 1.60552
   3   2  16 25.3709 1.50731
   0   3  16 110.840 4.09278
  -1  -3 -16 20.8717 1.57676
   1   3  16 28.6272 1.89049
  -2  -3 -16 137.745 3.49193
   2   3  16 125.131 3.91280
  -3  -3 -16 22.6053 1.42212
   3   3  16 25.7529 1.67737
   0   4  16 3.58093 1.09631
  -1  -4 -16 108.520 3.40235
   1   4  16 124.680 4.18264
  -2  -4 -16 22.0486 1.38978
   2   4  16 19.7226 1.79248
   0   5  16 39.7347 2.33814
  -1  -5 -16 70.9563 3.08806
   1   5  16 88.3631 3.91851
  -2  -5 -16 77.4649 2.45621
   2   5  16 77.1058 3.51470
   0   6  16 1.07489 0.91723
   0   0  17 2.58763 1.23447
   1   0  17 2.84597 0.98244
   2   0  17 4.70993 1.23427
   0   1  17 0.70221 0.93900
  -1  -1 -17 231.019 5.94231
   1   1  17 239.244 5.94495
  -2  -1 -17 91.8394 3.78272
   2   1  17 104.896 3.23455
   0   2  17 29.7691 1.86018
  -1  -2 -17 30.1687 1.72682
   1   2  17 26.4120 1.70930
  -2  -2 -17 113.476 3.67809
   2   2  17 115.013 3.57326
   0   3  17 15.2663 1.37932
  -1  -3 -17 9.69895 1.22334
   1   3  17 13.0452 1.76939
   0   0   0    0.00    0.00   0
;
_shelx_hkl_checksum              2178
loop_
_space_group_symop_operation_xyz
'x, y, z'
'-x+1/2, -y, z+1/2'
'x+1/2, -y+1/2, -z'
'-x, y+1/2, -z+1/2'
loop_
_atom_site_label
_atom_site_type_symbol
_atom_site_fract_x
_atom_site_fract_y
_atom_site_fract_z
_atom_site_U_iso_or_equiv
_atom_site_adp_type
_atom_site_occupancy
_atom_site_site_symmetry_order
_atom_site_calc_flag
_atom_site_refinement_flags_posn
_atom_site_refinement_flags_adp
S1 S 0.86415(7) 0.37451(5) 0.19872(4) 0.01671(15) Uani 1 1 d . .
O1 O 1.0729(2) 0.37936(14) -0.07078(11) 0.0180(4) Uani 1 1 d . .
H1 H 1.1383 0.3244 -0.0819 0.027 Uiso 1 1 calc R U
O2 O 1.2505(2) 0.23867(13) 0.05107(12) 0.0198(4) Uani 1 1 d . .
H2 H 1.3126 0.1830 0.0645 0.030 Uiso 1 1 calc R U
O3 O 0.8112(2) 0.48061(15) 0.23101(12) 0.0222(4) Uani 1 1 d . .
O4 O 0.7276(2) 0.29333(14) 0.18154(12) 0.0221(4) Uani 1 1 d . .
O5 O 0.9967(2) 0.33208(14) 0.27577(11) 0.0191(4) Uani 1 1 d . .
N6 N 0.9776(3) 0.38128(17) 0.10366(13) 0.0166(4) Uani 1 1 d . .
H6 H 0.9773 0.3144 0.0700 0.020 Uiso 1 1 d R U
C7 C 1.1726(3) 0.4585(2) -0.01592(16) 0.0173(5) Uani 1 1 d . .
C8 C 1.1943(3) 0.5219(2) 0.15729(17) 0.0174(5) Uani 1 1 d . .
H8A H 1.1092 0.5812 0.1399 0.021 Uiso 1 1 calc R U
H8B H 1.1621 0.4975 0.2206 0.021 Uiso 1 1 calc R U
C9 C 1.3659(3) 0.4596(2) -0.05258(17) 0.0201(5) Uani 1 1 d . .
H9A H 1.4151 0.3846 -0.0509 0.030 Uiso 1 1 calc R U
H9B H 1.4397 0.5081 -0.0138 0.030 Uiso 1 1 calc R U
H9C H 1.3666 0.4868 -0.1165 0.030 Uiso 1 1 calc R U
C10 C 1.2952(3) 0.2860(2) 0.21260(17) 0.0201(5) Uani 1 1 d . .
H10A H 1.3867 0.2269 0.2174 0.024 Uiso 1 1 calc R U
H10B H 1.3343 0.3470 0.2535 0.024 Uiso 1 1 calc R U
C11 C 1.0764(3) 0.5689(2) -0.03289(17) 0.0193(5) Uani 1 1 d . .
C12 C 1.2958(3) 0.3286(2) 0.11295(17) 0.0174(5) Uani 1 1 d . .
H12 H 1.4203 0.3541 0.0978 0.021 Uiso 1 1 calc R U
C13 C 1.3832(4) 0.5720(2) 0.16109(19) 0.0247(5) Uani 1 1 d . .
H13A H 1.4118 0.6058 0.1012 0.037 Uiso 1 1 calc R U
H13B H 1.4710 0.5140 0.1748 0.037 Uiso 1 1 calc R U
H13C H 1.3876 0.6284 0.2097 0.037 Uiso 1 1 calc R U
C14 C 1.1663(4) 0.6614(2) -0.04746(19) 0.0262(6) Uani 1 1 d . .
C15 C 1.1195(3) 0.24123(19) 0.24993(17) 0.0199(5) Uani 1 1 d . .
H15A H 1.0616 0.1944 0.2023 0.024 Uiso 1 1 calc R U
H15B H 1.1437 0.1947 0.3049 0.024 Uiso 1 1 calc R U
C16 C 1.1634(3) 0.42358(19) 0.09086(16) 0.0156(5) Uani 1 1 d . .
C17 C 0.8733(4) 0.5685(2) -0.0358(2) 0.0269(6) Uani 1 1 d . .
H17A H 0.8322 0.5157 -0.0827 0.040 Uiso 1 1 calc R U
H17B H 0.8299 0.6425 -0.0516 0.040 Uiso 1 1 calc R U
H17C H 0.8261 0.5470 0.0250 0.040 Uiso 1 1 calc R U
H14A H 1.293(4) 0.665(2) -0.047(2) 0.020(7) Uiso 1 1 d . .
H14B H 1.103(4) 0.732(3) -0.057(2) 0.030(8) Uiso 1 1 d . .
loop_
_atom_site_aniso_label
_atom_site_aniso_U_11
_atom_site_aniso_U_22
_atom_site_aniso_U_33
_atom_site_aniso_U_23
_atom_site_aniso_U_13
_atom_site_aniso_U_12
S1 0.0142(3) 0.0184(3) 0.0175(3) -0.0007(2) 0.0015(2) -0.0006(2)
O1 0.0185(8) 0.0161(8) 0.0195(8) -0.0036(7) -0.0019(6) 0.0016(7)
O2 0.0217(9) 0.0155(8) 0.0222(9) -0.0024(7) -0.0015(7) 0.0041(7)
O3 0.0197(9) 0.0222(8) 0.0249(9) -0.0027(7) 0.0036(7) 0.0025(7)
O4 0.0187(8) 0.0261(9) 0.0217(9) -0.0012(7) 0.0020(7) -0.0042(7)
O5 0.0184(8) 0.0211(8) 0.0177(8) -0.0003(7) 0.0011(7) 0.0010(7)
N6 0.0158(9) 0.0169(9) 0.0172(9) -0.0025(8) -0.0003(7) -0.0003(8)
C7 0.0176(12) 0.0169(11) 0.0175(11) -0.0008(9) -0.0008(9) -0.0011(9)
C8 0.0166(12) 0.0172(11) 0.0183(11) -0.0029(9) 0.0006(9) -0.0005(9)
C9 0.0185(12) 0.0218(12) 0.0199(11) 0.0006(10) 0.0014(10) -0.0012(10)
C10 0.0182(11) 0.0202(11) 0.0217(12) 0.0015(10) -0.0027(10) 0.0021(9)
C11 0.0232(13) 0.0196(12) 0.0151(11) -0.0005(9) -0.0007(9) 0.0028(10)
C12 0.0160(11) 0.0170(11) 0.0191(11) -0.0012(9) -0.0005(9) 0.0004(9)
C13 0.0210(12) 0.0258(12) 0.0272(13) -0.0072(11) 0.0002(11) -0.0061(11)
C14 0.0310(16) 0.0198(12) 0.0277(13) 0.0036(11) -0.0012(12) 0.0024(11)
C15 0.0215(12) 0.0181(11) 0.0201(12) 0.0005(9) 0.0004(10) 0.0036(10)
C16 0.0133(11) 0.0165(11) 0.0171(11) -0.0002(9) 0.0010(9) -0.0007(9)
C17 0.0247(13) 0.0230(13) 0.0332(14) 0.0023(11) -0.0034(12) 0.0058(11)
loop_
_atom_type_symbol
_atom_type_description
_atom_type_scat_dispersion_real
_atom_type_scat_dispersion_imag
_atom_type_scat_source
C C 0.0181 0.0091 'International Tables Vol C Tables 4.2.6.8 and 6.1.1.4'
H H 0.0000 0.0000 'International Tables Vol C Tables 4.2.6.8 and 6.1.1.4'
N N 0.0311 0.0180 'International Tables Vol C Tables 4.2.6.8 and 6.1.1.4'
O O 0.0492 0.0322 'International Tables Vol C Tables 4.2.6.8 and 6.1.1.4'
S S 0.3331 0.5567 'International Tables Vol C Tables 4.2.6.8 and 6.1.1.4'
loop_
_geom_angle_atom_site_label_1
_geom_angle_atom_site_label_2
_geom_angle_atom_site_label_3
_geom_angle
O3 S1 O4 118.70(11)
O3 S1 O5 103.71(10)
O4 S1 O5 109.96(10)
O3 S1 N6 112.17(11)
O4 S1 N6 104.94(10)
O5 S1 N6 106.91(10)
C15 O5 S1 116.87(14)
C16 N6 S1 127.58(16)
O1 C7 C9 107.28(19)
O1 C7 C11 104.56(18)
C9 C7 C11 111.9(2)
O1 C7 C16 109.30(18)
C9 C7 C16 112.04(19)
C11 C7 C16 111.33(19)
C13 C8 C16 117.7(2)
C15 C10 C12 117.3(2)
C14 C11 C17 120.2(2)
C14 C11 C7 121.9(2)
C17 C11 C7 117.8(2)
O2 C12 C10 109.02(19)
O2 C12 C16 106.53(18)
C10 C12 C16 116.3(2)
O5 C15 C10 110.85(19)
N6 C16 C8 109.09(18)
N6 C16 C12 107.99(18)
C8 C16 C12 110.53(19)
N6 C16 C7 104.53(18)
C8 C16 C7 112.81(19)
C12 C16 C7 111.59(18)
loop_
_geom_bond_atom_site_label_1
_geom_bond_atom_site_label_2
_geom_bond_distance
S1 O3 1.4231(19)
S1 O4 1.4354(18)
S1 O5 1.5726(17)
S1 N6 1.613(2)
O1 C7 1.447(3)
O2 C12 1.449(3)
O5 C15 1.478(3)
N6 C16 1.485(3)
C7 C9 1.532(3)
C7 C11 1.537(3)
C7 C16 1.600(3)
C8 C13 1.530(3)
C8 C16 1.547(3)
C10 C15 1.513(3)
C10 C12 1.529(3)
C11 C14 1.322(4)
C11 C17 1.510(4)
C12 C16 1.548(3)
loop_
_geom_torsion_atom_site_label_1
_geom_torsion_atom_site_label_2
_geom_torsion_atom_site_label_3
_geom_torsion_atom_site_label_4
_geom_torsion
O3 S1 O5 C15 -160.98(16)
O4 S1 O5 C15 71.11(18)
N6 S1 O5 C15 -42.29(18)
O3 S1 N6 C16 70.6(2)
O4 S1 N6 C16 -159.23(19)
O5 S1 N6 C16 -42.5(2)
O1 C7 C11 C14 -136.9(2)
C9 C7 C11 C14 -21.1(3)
C16 C7 C11 C14 105.2(3)
O1 C7 C11 C17 41.0(3)
C9 C7 C11 C17 156.8(2)
C16 C7 C11 C17 -76.9(3)
C15 C10 C12 O2 -61.6(3)
C15 C10 C12 C16 58.9(3)
S1 O5 C15 C10 90.7(2)
C12 C10 C15 O5 -77.8(3)
S1 N6 C16 C8 -35.4(3)
S1 N6 C16 C12 84.7(2)
S1 N6 C16 C7 -156.32(17)
C13 C8 C16 N6 175.1(2)
C13 C8 C16 C12 56.5(3)
C13 C8 C16 C7 -69.2(3)
O2 C12 C16 N6 57.7(2)
C10 C12 C16 N6 -64.0(3)
O2 C12 C16 C8 176.98(18)
C10 C12 C16 C8 55.2(3)
O2 C12 C16 C7 -56.6(2)
C10 C12 C16 C7 -178.36(19)
O1 C7 C16 N6 -38.1(2)
C9 C7 C16 N6 -156.82(19)
C11 C7 C16 N6 76.9(2)
O1 C7 C16 C8 -156.45(18)
C9 C7 C16 C8 84.8(2)
C11 C7 C16 C8 -41.4(3)
O1 C7 C16 C12 78.4(2)
C9 C7 C16 C12 -40.4(3)
C11 C7 C16 C12 -166.6(2)
