#------------------------------------------------------------------------------
#$Date: 2016-03-04 13:50:20 +0200 (Fri, 04 Mar 2016) $
#$Revision: 177499 $
#$URL: svn://www.crystallography.net/cod/cif/1/54/24/1542452.cif $
#------------------------------------------------------------------------------
#
# This file is available in the Crystallography Open Database (COD),
# http://www.crystallography.net/
#
# All data on this site have been placed in the public domain by the
# contributors.
#
data_1542452
loop_
_publ_author_name
'Efimov, Ilya'
'Slepukhin, Pavel'
'Beliaev, Nikolai'
'Bakulev, Vasiliy'
_publ_section_title
;
 (<i>E</i>)-<i>N</i>-[Cyclopentyl(morpholin-4-yl)methylidene]-4-fluorobenzenesulfonamide
;
_journal_coeditor_code           HB4006
_journal_issue                   1
_journal_name_full               IUCrData
_journal_page_first              x160013
_journal_paper_doi               10.1107/S2414314616000134
_journal_volume                  1
_journal_year                    2016
_chemical_formula_iupac          'C16 H21 F N2 O3 S'
_chemical_formula_moiety         'C16 H21 F N2 O3 S'
_chemical_formula_sum            'C16 H21 F N2 O3 S'
_chemical_formula_weight         340.41
_chemical_name_systematic
(<i>E</i>)-<i>N</i>-[Cyclopentyl(morpholin-4-yl)methylidene]-4-fluorobenzenesulfonamide
_space_group_crystal_system      monoclinic
_space_group_IT_number           14
_space_group_name_Hall           '-P 2ybc'
_space_group_name_H-M_alt        'P 1 21/c 1'
_symmetry_space_group_name_Hall  '-P 2ybc'
_symmetry_space_group_name_H-M   'P 1 21/c 1'
_atom_sites_solution_hydrogens   geom
_atom_sites_solution_primary     direct
_atom_sites_solution_secondary   difmap
_audit_creation_method
;
  Olex2 1.2-ac2
  (compiled 2012.03.27 svn.r2268, GUI svn.r4156)
;
_cell_angle_alpha                90.00
_cell_angle_beta                 107.768(6)
_cell_angle_gamma                90.00
_cell_formula_units_Z            4
_cell_length_a                   11.5613(7)
_cell_length_b                   16.4245(13)
_cell_length_c                   8.8730(6)
_cell_measurement_reflns_used    1405
_cell_measurement_temperature    295(2)
_cell_measurement_theta_max      27.0300
_cell_measurement_theta_min      2.7570
_cell_volume                     1604.5(2)
_computing_cell_refinement
;
CrysAlisPro (Agilent, 2013)
;
_computing_data_collection
;
CrysAlisPro (Agilent, 2013)
;
_computing_data_reduction
;
CrysAlisPro (Agilent, 2013)
;
_computing_molecular_graphics
;
<i>OLEX2</i> (Dolomanov <i>et al.</i>,  2009)
;
_computing_publication_material
;
<i>OLEX2</i> (Dolomanov <i>et al.</i>,  2009)
;
_computing_structure_refinement
;
SHELXL (Sheldrick, 2008)
;
_computing_structure_solution
;
SHELXS (Sheldrick, 2008)
;
_diffrn_ambient_temperature      295(2)
_diffrn_detector_area_resol_mean 15.9555
_diffrn_measured_fraction_theta_full 0.9529
_diffrn_measured_fraction_theta_max 0.9529
_diffrn_measurement_device_type  'Agilent Xcalibur, Eos'
_diffrn_measurement_method       '\w scans'
_diffrn_radiation_monochromator  graphite
_diffrn_radiation_type           'Mo K\a'
_diffrn_radiation_wavelength     0.7107
_diffrn_reflns_av_R_equivalents  0.0293
_diffrn_reflns_limit_h_max       14
_diffrn_reflns_limit_h_min       -9
_diffrn_reflns_limit_k_max       18
_diffrn_reflns_limit_k_min       -21
_diffrn_reflns_limit_l_max       11
_diffrn_reflns_limit_l_min       -10
_diffrn_reflns_number            6974
_diffrn_reflns_theta_full        27.10
_diffrn_reflns_theta_max         27.10
_diffrn_reflns_theta_min         2.23
_exptl_absorpt_coefficient_mu    0.229
_exptl_absorpt_correction_T_max  1.00000
_exptl_absorpt_correction_T_min  0.93936
_exptl_absorpt_correction_type   multi-scan
_exptl_absorpt_process_details
;
(CrysAlisPro; Agilent, 2013)
;
_exptl_crystal_colour            colourless
_exptl_crystal_density_diffrn    1.409
_exptl_crystal_density_method    'not measured'
_exptl_crystal_description       plank
_exptl_crystal_F_000             720
_exptl_crystal_size_max          0.25
_exptl_crystal_size_mid          0.17
_exptl_crystal_size_min          0.03
_refine_diff_density_max         0.289
_refine_diff_density_min         -0.380
_refine_ls_extinction_method     none
_refine_ls_goodness_of_fit_ref   1.007
_refine_ls_hydrogen_treatment    mixed
_refine_ls_matrix_type           full
_refine_ls_number_parameters     221
_refine_ls_number_reflns         3391
_refine_ls_number_restraints     6
_refine_ls_restrained_S_all      1.007
_refine_ls_R_factor_all          0.0778
_refine_ls_R_factor_gt           0.0464
_refine_ls_shift/su_max          0.000
_refine_ls_shift/su_mean         0.000
_refine_ls_structure_factor_coef Fsqd
_refine_ls_weighting_details
'calc w=1/[\s^2^(Fo^2^)+(0.0750P)^2^+0.0100P] where P=(Fo^2^+2Fc^2^)/3'
_refine_ls_weighting_scheme      calc
_refine_ls_wR_factor_gt          0.1167
_refine_ls_wR_factor_ref         0.1371
_reflns_number_gt                2323
_reflns_number_total             3391
_reflns_threshold_expression     I>2\s(I)
_cod_data_source_file            hb4006sup1.cif
_cod_data_source_block           I
_cod_depositor_comments          'Adding full bibliography for 1542452.cif.'
_cod_database_code               1542452
_cod_database_fobs_code          1542452
loop_
_space_group_symop_id
_space_group_symop_operation_xyz
1 'x, y, z'
2 '-x, y+1/2, -z+1/2'
3 '-x, -y, -z'
4 'x, -y-1/2, z-1/2'
loop_
_atom_site_type_symbol
_atom_site_label
_atom_site_fract_x
_atom_site_fract_y
_atom_site_fract_z
_atom_site_U_iso_or_equiv
_atom_site_adp_type
_atom_site_calc_flag
_atom_site_refinement_flags
_atom_site_occupancy
_atom_site_symmetry_multiplicity
_atom_site_disorder_assembly
_atom_site_disorder_group
S S1 0.26452(5) 0.09127(4) 0.07277(6) 0.04217(19) Uani d . 1 1 . .
N N2 0.45896(15) 0.09749(12) -0.20031(19) 0.0369(4) Uani d . 1 1 . .
N N1 0.37106(15) 0.10138(13) -0.0054(2) 0.0413(5) Uani d . 1 1 . .
C C1 0.14033(18) 0.14851(14) -0.0468(2) 0.0347(5) Uani d . 1 1 . .
C C7 0.36523(18) 0.07661(14) -0.1498(2) 0.0352(5) Uani d . 1 1 . .
O O1 0.22350(16) 0.00860(11) 0.07573(19) 0.0568(5) Uani d . 1 1 . .
C C8 0.26032(19) 0.02854(15) -0.2575(2) 0.0381(5) Uani d . 1 1 B .
O O3 0.60684(14) 0.19090(11) -0.33829(19) 0.0528(5) Uani d . 1 1 . .
F F8 -0.14638(14) 0.28150(12) -0.3150(2) 0.0788(5) Uani d . 1 1 . .
C C2 0.1600(2) 0.22178(15) -0.1115(3) 0.0444(6) Uani d . 1 1 . .
H H2 0.2388 0.2406 -0.0946 0.053 Uiso calc R 1 1 . .
O O2 0.30637(15) 0.13122(13) 0.22357(18) 0.0605(5) Uani d . 1 1 . .
C C13 0.4793(2) 0.07269(15) -0.3481(2) 0.0419(6) Uani d . 1 1 . .
H H13A 0.4078 0.0450 -0.4148 0.050 Uiso calc R 1 1 . .
H H13B 0.5472 0.0351 -0.3259 0.050 Uiso calc R 1 1 . .
C C3 0.0632(2) 0.26682(16) -0.2006(3) 0.0523(6) Uani d . 1 1 . .
H H3 0.0754 0.3165 -0.2437 0.063 Uiso calc R 1 1 . .
C C4 -0.0514(2) 0.23724(17) -0.2248(3) 0.0498(6) Uani d . 1 1 . .
C C16 0.56120(19) 0.14650(16) -0.1027(3) 0.0437(6) Uani d . 1 1 . .
H H16A 0.6336 0.1130 -0.0675 0.052 Uiso calc R 1 1 . .
H H16B 0.5425 0.1665 -0.0099 0.052 Uiso calc R 1 1 . .
C C14 0.5058(2) 0.14643(17) -0.4328(3) 0.0489(6) Uani d . 1 1 . .
H H14A 0.5216 0.1293 -0.5292 0.059 Uiso calc R 1 1 . .
H H14B 0.4350 0.1815 -0.4621 0.059 Uiso calc R 1 1 . .
C C5 -0.0748(2) 0.16534(17) -0.1626(3) 0.0503(6) Uani d . 1 1 . .
H H5 -0.1541 0.1472 -0.1801 0.060 Uiso calc R 1 1 . .
C C9 0.1918(2) 0.06850(17) -0.4184(3) 0.0490(6) Uani d . 1 1 B .
H H9A 0.1177 0.0946 -0.4135 0.059 Uiso calc R 1 1 . .
H H9B 0.2424 0.1088 -0.4477 0.059 Uiso calc R 1 1 . .
C C6 0.0229(2) 0.12052(15) -0.0730(3) 0.0446(6) Uani d . 1 1 . .
H H6 0.0097 0.0711 -0.0298 0.053 Uiso calc R 1 1 . .
C C12 0.2895(2) -0.05923(15) -0.2949(3) 0.0490(6) Uani d . 1 1 . .
H H12A 0.3680 -0.0622 -0.3131 0.059 Uiso calc PR 0.75 1 A 1
H H12B 0.2890 -0.0960 -0.2096 0.059 Uiso calc PR 0.75 1 A 1
H H12C 0.2512 -0.0983 -0.2434 0.059 Uiso calc PR 0.25 1 A 2
H H12D 0.3765 -0.0687 -0.2607 0.059 Uiso calc PR 0.25 1 A 2
C C15 0.5838(2) 0.21732(16) -0.1983(3) 0.0509(6) Uani d . 1 1 . .
H H15A 0.5135 0.2529 -0.2260 0.061 Uiso calc R 1 1 . .
H H15B 0.6528 0.2484 -0.1346 0.061 Uiso calc R 1 1 . .
C C11 0.1861(5) -0.0793(3) -0.4464(5) 0.0564(12) Uani d P 0.75 1 B 1
H H11A 0.2104 -0.1217 -0.5066 0.068 Uiso calc PR 0.75 1 B 1
H H11B 0.1141 -0.0970 -0.4213 0.068 Uiso calc PR 0.75 1 B 1
C C10 0.1633(3) -0.0017(2) -0.5361(3) 0.0769(10) Uani d . 1 1 . .
H H10A 0.0791 0.0011 -0.6013 0.092 Uiso calc PR 0.75 1 B 1
H H10B 0.2143 0.0016 -0.6047 0.092 Uiso calc PR 0.75 1 B 1
H H10C 0.0791 -0.0179 -0.5574 0.092 Uiso calc PR 0.25 1 B 2
H H10D 0.1749 0.0157 -0.6350 0.092 Uiso calc PR 0.25 1 B 2
H H8 0.2026(19) 0.0260(13) -0.203(2) 0.032(5) Uiso d . 1 1 . .
C C11A 0.2368(14) -0.0656(11) -0.477(2) 0.067(4) Uani d PU 0.25 1 B 2
H H11C 0.3027 -0.0669 -0.5232 0.081 Uiso calc PR 0.25 1 B 2
H H11D 0.1912 -0.1159 -0.5047 0.081 Uiso calc PR 0.25 1 B 2
loop_
_atom_site_aniso_label
_atom_site_aniso_U_11
_atom_site_aniso_U_22
_atom_site_aniso_U_33
_atom_site_aniso_U_12
_atom_site_aniso_U_13
_atom_site_aniso_U_23
S1 0.0421(3) 0.0542(4) 0.0311(3) 0.0068(3) 0.0124(2) 0.0008(2)
N2 0.0384(9) 0.0416(12) 0.0318(10) -0.0014(8) 0.0121(7) -0.0063(8)
N1 0.0360(9) 0.0565(14) 0.0311(10) 0.0024(9) 0.0099(7) -0.0061(8)
C1 0.0356(11) 0.0384(13) 0.0321(11) -0.0013(9) 0.0135(8) -0.0051(9)
C7 0.0350(11) 0.0366(13) 0.0336(12) 0.0057(9) 0.0099(8) -0.0001(8)
O1 0.0676(11) 0.0494(12) 0.0606(11) 0.0099(9) 0.0305(9) 0.0175(8)
C8 0.0383(12) 0.0427(14) 0.0342(12) -0.0046(10) 0.0124(9) -0.0024(9)
O3 0.0478(9) 0.0614(12) 0.0509(10) -0.0124(8) 0.0176(7) -0.0003(8)
F8 0.0623(10) 0.0796(14) 0.0833(11) 0.0288(9) 0.0054(8) 0.0109(9)
C2 0.0377(12) 0.0426(15) 0.0527(14) -0.0070(11) 0.0135(10) -0.0003(11)
O2 0.0537(10) 0.0952(16) 0.0311(9) 0.0093(10) 0.0106(7) -0.0109(9)
C13 0.0428(12) 0.0485(15) 0.0371(13) -0.0021(10) 0.0162(9) -0.0069(10)
C3 0.0590(15) 0.0397(15) 0.0577(15) 0.0003(12) 0.0170(11) 0.0082(11)
C4 0.0426(13) 0.0547(17) 0.0475(14) 0.0131(12) 0.0067(10) -0.0051(11)
C16 0.0362(11) 0.0535(16) 0.0389(12) -0.0028(11) 0.0077(9) -0.0074(10)
C14 0.0480(13) 0.0581(18) 0.0406(13) -0.0057(12) 0.0134(10) 0.0014(11)
C5 0.0351(12) 0.0601(19) 0.0543(15) -0.0031(11) 0.0115(10) -0.0075(12)
C9 0.0433(13) 0.0505(16) 0.0457(14) -0.0002(11) 0.0024(10) 0.0003(11)
C6 0.0445(12) 0.0390(14) 0.0526(14) -0.0074(11) 0.0183(10) -0.0017(10)
C12 0.0586(15) 0.0392(15) 0.0426(14) -0.0036(12) 0.0059(10) 0.0004(10)
C15 0.0482(13) 0.0498(17) 0.0525(15) -0.0062(12) 0.0120(11) -0.0074(12)
C11 0.072(3) 0.045(2) 0.041(2) -0.013(2) 0.0011(19) -0.0076(16)
C10 0.097(2) 0.069(2) 0.0436(16) -0.0073(19) -0.0093(14) -0.0045(13)
C11A 0.070(8) 0.056(7) 0.066(7) -0.004(6) 0.007(6) -0.012(6)
loop_
_atom_type_symbol
_atom_type_description
_atom_type_scat_dispersion_real
_atom_type_scat_dispersion_imag
_atom_type_scat_source
C C 0.0033 0.0016 'International Tables Vol C Tables 4.2.6.8 and 6.1.1.4'
H H 0.0000 0.0000 'International Tables Vol C Tables 4.2.6.8 and 6.1.1.4'
F F 0.0171 0.0103 'International Tables Vol C Tables 4.2.6.8 and 6.1.1.4'
N N 0.0061 0.0033 'International Tables Vol C Tables 4.2.6.8 and 6.1.1.4'
O O 0.0106 0.0060 'International Tables Vol C Tables 4.2.6.8 and 6.1.1.4'
S S 0.1246 0.1234 'International Tables Vol C Tables 4.2.6.8 and 6.1.1.4'
loop_
_geom_angle_atom_site_label_1
_geom_angle_atom_site_label_2
_geom_angle_atom_site_label_3
_geom_angle
N1 S1 C1 106.04(10)
O1 S1 N1 114.06(11)
O1 S1 C1 107.44(10)
O2 S1 N1 105.80(10)
O2 S1 C1 107.26(11)
O2 S1 O1 115.66(12)
C7 N2 C13 126.79(18)
C7 N2 C16 121.98(18)
C13 N2 C16 111.13(17)
C7 N1 S1 124.71(16)
C2 C1 S1 120.31(16)
C2 C1 C6 119.8(2)
C6 C1 S1 119.90(18)
N2 C7 C8 119.76(18)
N1 C7 N2 115.94(19)
N1 C7 C8 124.3(2)
C7 C8 C9 116.42(19)
C7 C8 C12 115.96(18)
C7 C8 H8 105.0(12)
C9 C8 H8 104.4(12)
C12 C8 C9 106.34(18)
C12 C8 H8 107.9(14)
C14 O3 C15 109.61(17)
C1 C2 H2 120.0
C3 C2 C1 120.0(2)
C3 C2 H2 120.0
N2 C13 H13A 109.7
N2 C13 H13B 109.7
N2 C13 C14 109.7(2)
H13A C13 H13B 108.2
C14 C13 H13A 109.7
C14 C13 H13B 109.7
C2 C3 H3 120.6
C4 C3 C2 118.7(2)
C4 C3 H3 120.6
F8 C4 C3 118.3(3)
F8 C4 C5 118.5(2)
C3 C4 C5 123.2(2)
N2 C16 H16A 109.7
N2 C16 H16B 109.7
N2 C16 C15 109.63(18)
H16A C16 H16B 108.2
C15 C16 H16A 109.7
C15 C16 H16B 109.7
O3 C14 C13 112.12(18)
O3 C14 H14A 109.2
O3 C14 H14B 109.2
C13 C14 H14A 109.2
C13 C14 H14B 109.2
H14A C14 H14B 107.9
C4 C5 H5 121.1
C4 C5 C6 117.8(2)
C6 C5 H5 121.1
C8 C9 H9A 110.8
C8 C9 H9B 110.8
H9A C9 H9B 108.9
C10 C9 C8 104.7(2)
C10 C9 H9A 110.8
C10 C9 H9B 110.8
C1 C6 H6 119.7
C5 C6 C1 120.6(2)
C5 C6 H6 119.7
C8 C12 H12A 111.2
C8 C12 H12B 111.2
C8 C12 H12C 110.9
C8 C12 H12D 110.9
C8 C12 C11A 104.3(7)
H12A C12 H12B 109.1
H12A C12 H12C 129.0
H12A C12 H12D 27.3
H12B C12 H12C 26.8
H12B C12 H12D 84.7
H12C C12 H12D 108.9
C11 C12 C8 103.1(2)
C11 C12 H12A 111.2
C11 C12 H12B 111.2
C11 C12 H12C 85.7
C11 C12 H12D 134.0
C11 C12 C11A 28.2(5)
C11A C12 H12A 85.0
C11A C12 H12B 132.7
C11A C12 H12C 110.9
C11A C12 H12D 110.9
O3 C15 C16 111.6(2)
O3 C15 H15A 109.3
O3 C15 H15B 109.3
C16 C15 H15A 109.3
C16 C15 H15B 109.3
H15A C15 H15B 108.0
C12 C11 H11A 110.9
C12 C11 H11B 110.9
H11A C11 H11B 108.9
C10 C11 C12 104.4(3)
C10 C11 H11A 110.9
C10 C11 H11B 110.9
C9 C10 H10A 110.0
C9 C10 H10B 110.0
C9 C10 H10C 109.7
C9 C10 H10D 109.7
C11 C10 C9 108.5(3)
C11 C10 H10A 110.0
C11 C10 H10B 110.0
C11 C10 H10C 82.6
C11 C10 H10D 133.4
H10A C10 H10B 108.4
H10A C10 H10C 29.8
H10A C10 H10D 80.6
H10B C10 H10C 131.2
H10B C10 H10D 30.4
H10C C10 H10D 108.2
C11A C10 C9 110.0(7)
C11A C10 C11 30.3(7)
C11A C10 H10A 131.7
C11A C10 H10B 81.7
C11A C10 H10C 109.7
C11A C10 H10D 109.7
C12 C11A H11C 109.5
C12 C11A H11D 109.5
C10 C11A C12 110.7(11)
C10 C11A H11C 109.5
C10 C11A H11D 109.5
H11C C11A H11D 108.1
loop_
_geom_bond_atom_site_label_1
_geom_bond_atom_site_label_2
_geom_bond_distance
S1 N1 1.5963(19)
S1 C1 1.772(2)
S1 O1 1.4412(19)
S1 O2 1.4352(17)
N2 C7 1.338(3)
N2 C13 1.459(3)
N2 C16 1.473(3)
N1 C7 1.326(3)
C1 C2 1.382(3)
C1 C6 1.385(3)
C7 C8 1.517(3)
C8 C9 1.551(3)
C8 C12 1.540(3)
C8 H8 0.94(2)
O3 C14 1.415(3)
O3 C15 1.416(3)
F8 C4 1.356(3)
C2 H2 0.9300
C2 C3 1.373(3)
C13 H13A 0.9700
C13 H13B 0.9700
C13 C14 1.505(3)
C3 H3 0.9300
C3 C4 1.365(3)
C4 C5 1.365(4)
C16 H16A 0.9700
C16 H16B 0.9700
C16 C15 1.509(4)
C14 H14A 0.9700
C14 H14B 0.9700
C5 H5 0.9300
C5 C6 1.379(3)
C9 H9A 0.9700
C9 H9B 0.9700
C9 C10 1.523(4)
C6 H6 0.9300
C12 H12A 0.9700
C12 H12B 0.9700
C12 H12C 0.9700
C12 H12D 0.9700
C12 C11 1.537(5)
C12 C11A 1.545(17)
C15 H15A 0.9700
C15 H15B 0.9700
C11 H11A 0.9700
C11 H11B 0.9700
C11 C10 1.483(5)
C10 H10A 0.9700
C10 H10B 0.9700
C10 H10C 0.9700
C10 H10D 0.9700
C10 C11A 1.353(17)
C11A H11C 0.9700
C11A H11D 0.9700
loop_
_geom_torsion_atom_site_label_1
_geom_torsion_atom_site_label_2
_geom_torsion_atom_site_label_3
_geom_torsion_atom_site_label_4
_geom_torsion
S1 N1 C7 N2 173.72(17)
S1 N1 C7 C8 -5.4(3)
S1 C1 C2 C3 -178.33(18)
S1 C1 C6 C5 178.44(17)
N2 C7 C8 C9 -59.1(3)
N2 C7 C8 C12 67.2(3)
N2 C13 C14 O3 57.2(3)
N2 C16 C15 O3 -57.1(2)
N1 S1 C1 C2 -37.6(2)
N1 S1 C1 C6 143.67(18)
N1 C7 C8 C9 120.0(2)
N1 C7 C8 C12 -113.8(2)
C1 S1 N1 C7 -62.4(2)
C1 C2 C3 C4 -0.7(4)
C7 N2 C13 C14 129.6(2)
C7 N2 C16 C15 -129.2(2)
C7 C8 C9 C10 141.5(2)
C7 C8 C12 C11 -159.9(3)
C7 C8 C12 C11A -130.8(7)
O1 S1 N1 C7 55.6(2)
O1 S1 C1 C2 -159.96(18)
O1 S1 C1 C6 21.3(2)
C8 C9 C10 C11 12.6(4)
C8 C9 C10 C11A -19.4(8)
C8 C12 C11 C10 36.4(4)
C8 C12 C11A C10 -12.9(12)
F8 C4 C5 C6 179.1(2)
C2 C1 C6 C5 -0.3(3)
C2 C3 C4 F8 -179.0(2)
C2 C3 C4 C5 1.0(4)
O2 S1 N1 C7 -176.12(19)
O2 S1 C1 C2 75.1(2)
O2 S1 C1 C6 -103.6(2)
C13 N2 C7 N1 174.8(2)
C13 N2 C7 C8 -6.0(3)
C13 N2 C16 C15 54.2(2)
C3 C4 C5 C6 -0.9(4)
C4 C5 C6 C1 0.5(4)
C16 N2 C7 N1 -1.2(3)
C16 N2 C7 C8 177.91(19)
C16 N2 C13 C14 -54.0(2)
C14 O3 C15 C16 59.7(2)
C9 C8 C12 C11 -28.7(3)
C9 C8 C12 C11A 0.3(7)
C9 C10 C11A C12 20.5(12)
C6 C1 C2 C3 0.4(4)
C12 C8 C9 C10 10.5(3)
C12 C11 C10 C9 -30.9(4)
C12 C11 C10 C11A 67.4(15)
C15 O3 C14 C13 -59.8(3)
C11 C12 C11A C10 78.1(15)
C11 C10 C11A C12 -72.0(15)
C11A C12 C11 C10 -59.6(15)
loop_
_refln_index_h
_refln_index_k
_refln_index_l
_refln_observed_status
_refln_F_squared_meas
_refln_F_squared_calc
2 0 0 o 2501.43 2501.15
3 0 0 o 2786.89 2801.74
4 0 0 o 489.82 586.81
5 0 0 o 10.51 15.53
6 0 0 o 188.20 162.35
7 0 0 o 298.72 274.88
8 0 0 o 237.10 221.70
9 0 0 o 1529.85 1523.33
10 0 0 o 390.77 375.56
11 0 0 o 83.66 98.98
12 0 0 o 0.35 0.06
13 0 0 o 13.50 0.27
14 0 0 o 3.73 11.26
1 1 0 o 1145.14 1254.23
2 1 0 o 100.26 95.23
3 1 0 o 5071.83 5305.43
4 1 0 o 1165.23 1181.54
5 1 0 o 13.59 27.84
6 1 0 o 149.93 143.04
7 1 0 o 51.26 50.35
8 1 0 o 25.19 11.63
9 1 0 o 404.29 412.90
10 1 0 o 93.42 113.88
11 1 0 o 1.50 4.85
12 1 0 o 54.23 55.17
13 1 0 o -0.41 2.45
14 1 0 o -6.60 1.78
0 2 0 o 513.84 611.07
1 2 0 o 1778.28 1957.86
2 2 0 o 14936.81 15901.93
4 2 0 o 6812.05 6901.18
5 2 0 o 6.79 9.75
6 2 0 o 27.07 16.12
7 2 0 o 156.51 165.02
8 2 0 o 354.94 321.83
9 2 0 o 125.54 107.41
10 2 0 o 3.16 8.85
11 2 0 o 396.46 389.37
12 2 0 o 11.85 20.49
13 2 0 o 80.65 48.75
14 2 0 o 28.48 16.00
1 3 0 o 14208.65 15123.89
2 3 0 o 4085.83 3823.24
3 3 0 o 274.34 250.48
4 3 0 o 37.13 36.82
5 3 0 o 570.54 593.04
6 3 0 o 17.65 17.48
7 3 0 o 177.63 220.25
8 3 0 o 191.10 194.71
9 3 0 o 1074.89 1027.82
10 3 0 o 219.84 192.57
11 3 0 o 12.14 13.28
12 3 0 o 74.00 60.23
13 3 0 o 4.63 3.67
0 4 0 o 2459.53 2394.46
1 4 0 o 7522.77 7359.47
2 4 0 o 766.75 735.26
3 4 0 o 1733.33 1660.76
4 4 0 o 655.33 698.99
5 4 0 o 1238.48 1277.87
6 4 0 o 81.62 60.09
7 4 0 o 79.88 97.38
8 4 0 o 176.18 215.08
9 4 0 o 14.57 7.15
10 4 0 o 13.78 15.11
11 4 0 o 265.68 244.42
12 4 0 o 26.17 37.77
13 4 0 o 11.35 4.54
1 5 0 o 92.47 114.42
2 5 0 o 62.90 63.77
3 5 0 o 51.87 52.00
4 5 0 o 641.45 678.52
5 5 0 o 1198.40 1112.08
6 5 0 o 213.19 202.50
7 5 0 o 185.08 203.68
8 5 0 o 437.74 461.80
9 5 0 o 27.08 22.70
10 5 0 o 309.96 310.66
11 5 0 o 61.99 57.98
12 5 0 o 48.03 31.52
13 5 0 o 25.30 10.36
0 6 0 o 5508.13 5828.45
1 6 0 o 231.25 177.65
2 6 0 o 323.72 378.31
3 6 0 o 633.62 604.08
4 6 0 o 641.95 567.61
5 6 0 o 17.79 23.42
6 6 0 o 4.58 2.54
7 6 0 o 10.03 10.53
8 6 0 o 67.24 61.99
9 6 0 o 389.43 384.77
10 6 0 o 220.05 191.18
11 6 0 o 346.69 310.49
12 6 0 o 5.06 20.52
13 6 0 o 70.24 57.05
1 7 0 o 1818.15 1845.49
2 7 0 o 1478.58 1487.80
3 7 0 o 569.14 471.07
4 7 0 o 355.89 357.96
5 7 0 o 287.52 294.76
6 7 0 o 66.37 73.56
7 7 0 o 86.23 89.27
8 7 0 o 51.46 52.77
9 7 0 o 51.94 59.98
10 7 0 o 250.87 249.27
11 7 0 o 26.58 17.62
12 7 0 o 16.71 13.52
13 7 0 o 4.81 1.05
0 8 0 o 415.60 411.49
1 8 0 o 1088.28 1014.74
2 8 0 o 40.09 26.77
3 8 0 o -2.81 2.93
4 8 0 o 320.58 302.53
5 8 0 o 15.13 12.10
6 8 0 o 94.40 86.62
7 8 0 o 22.59 19.26
8 8 0 o 53.64 66.07
9 8 0 o 24.61 28.50
10 8 0 o 57.19 65.33
11 8 0 o 48.22 62.61
12 8 0 o -1.45 1.63
13 8 0 o -7.51 2.41
1 9 0 o 2.99 2.18
2 9 0 o 390.86 338.60
3 9 0 o 1.62 1.88
4 9 0 o 48.33 46.04
5 9 0 o 456.62 502.30
6 9 0 o 52.50 40.64
7 9 0 o 39.77 41.57
8 9 0 o 74.71 85.27
9 9 0 o 194.57 174.17
10 9 0 o 255.35 273.01
11 9 0 o 18.50 17.76
12 9 0 o 110.27 117.22
0 10 0 o 656.34 786.95
1 10 0 o 193.71 153.57
2 10 0 o 761.86 794.45
3 10 0 o 5.76 8.43
4 10 0 o -7.95 0.24
5 10 0 o 343.99 336.31
6 10 0 o 230.75 239.41
7 10 0 o 14.63 30.14
8 10 0 o 259.21 273.49
9 10 0 o 8.65 13.62
10 10 0 o 4.53 5.92
11 10 0 o 96.78 98.12
12 10 0 o 12.61 3.94
1 11 0 o 146.74 131.11
2 11 0 o -2.84 3.29
3 11 0 o 237.80 225.83
4 11 0 o 224.76 232.29
5 11 0 o 505.81 498.70
6 11 0 o 12.91 0.07
7 11 0 o 24.39 36.38
8 11 0 o 6.19 9.65
9 11 0 o -3.57 0.46
10 11 0 o 4.07 7.81
11 11 0 o 12.89 3.49
12 11 0 o 10.46 23.73
0 12 0 o 857.41 849.64
1 12 0 o -1.21 0.36
2 12 0 o 132.01 165.22
3 12 0 o 52.33 72.61
4 12 0 o 177.82 189.45
5 12 0 o 5.37 8.53
6 12 0 o 54.90 66.61
7 12 0 o 240.40 273.60
8 12 0 o 2.55 10.01
9 12 0 o 18.32 27.45
10 12 0 o 45.52 53.59
11 12 0 o 99.16 79.70
1 13 0 o 643.39 680.70
2 13 0 o 321.07 293.72
3 13 0 o 165.81 144.13
4 13 0 o 2.84 16.61
5 13 0 o 415.75 416.31
6 13 0 o 183.96 206.18
7 13 0 o 226.46 263.14
8 13 0 o 36.04 26.16
9 13 0 o 80.58 83.90
10 13 0 o 21.11 22.56
11 13 0 o 35.70 7.05
0 14 0 o 621.73 575.86
1 14 0 o 6.68 0.55
2 14 0 o 28.50 34.90
3 14 0 o 680.09 636.49
4 14 0 o 46.24 55.08
5 14 0 o 11.20 15.10
6 14 0 o 180.02 201.76
7 14 0 o 9.53 9.65
8 14 0 o -3.60 6.69
9 14 0 o 22.83 1.03
10 14 0 o 7.62 1.90
1 15 0 o 259.56 315.08
2 15 0 o 7.48 6.05
3 15 0 o 192.30 193.17
4 15 0 o 0.88 18.82
5 15 0 o -2.17 2.69
6 15 0 o -3.18 4.52
7 15 0 o 74.99 75.92
8 15 0 o -2.98 1.60
9 15 0 o 98.83 86.93
0 16 0 o 177.88 182.25
1 16 0 o 24.60 23.74
2 16 0 o 26.45 21.88
3 16 0 o 72.32 67.83
4 16 0 o -4.96 0.82
5 16 0 o 53.69 62.73
6 16 0 o 88.12 92.60
7 16 0 o 79.60 74.76
8 16 0 o 38.39 28.41
9 16 0 o 25.49 21.07
1 17 0 o 2.84 0.00
2 17 0 o -9.47 2.62
3 17 0 o -10.43 0.21
4 17 0 o -2.89 1.12
5 17 0 o 14.45 0.58
6 17 0 o 18.38 5.77
7 17 0 o -9.29 0.00
8 17 0 o 21.81 23.10
0 18 0 o 1.81 3.99
1 18 0 o 62.58 70.33
2 18 0 o 22.09 9.95
3 18 0 o 17.38 3.62
4 18 0 o 41.94 33.19
5 18 0 o -10.84 1.41
6 18 0 o 23.98 13.96
7 18 0 o -8.84 0.30
1 19 0 o 52.33 30.30
2 19 0 o 7.23 4.12
3 19 0 o 35.53 26.48
4 19 0 o 11.30 16.29
5 19 0 o -10.32 5.15
6 19 0 o 79.22 69.08
0 20 0 o -2.70 0.99
1 20 0 o 24.15 25.27
2 20 0 o 17.15 0.25
3 20 0 o -2.64 3.15
4 20 0 o -5.90 0.61
-14 1 1 o 2.40 6.74
-13 1 1 o -6.46 0.01
-12 1 1 o 23.85 29.46
-11 1 1 o 2.52 6.03
-10 1 1 o 169.52 170.83
-9 1 1 o 196.37 202.88
-8 1 1 o 820.42 850.63
-7 1 1 o 4.56 2.16
-6 1 1 o 567.09 608.99
-5 1 1 o 167.60 149.41
-4 1 1 o 1237.55 1170.41
-3 1 1 o 4489.17 4638.34
-2 1 1 o 548.88 477.03
-1 1 1 o 240.95 261.06
0 1 1 o 2128.24 3048.11
1 1 1 o 86.65 106.90
2 1 1 o 740.23 807.29
3 1 1 o 4218.52 4312.67
4 1 1 o 47.36 35.01
5 1 1 o 16.78 30.23
6 1 1 o 1255.89 1261.73
7 1 1 o 543.60 528.09
8 1 1 o 222.24 239.85
9 1 1 o 199.24 195.28
10 1 1 o 491.70 515.27
11 1 1 o 230.70 204.06
12 1 1 o -3.70 0.11
13 1 1 o -5.44 0.77
-14 2 1 o 0.13 0.17
-13 2 1 o 42.89 27.86
-12 2 1 o 30.12 27.26
-11 2 1 o 54.96 42.03
-10 2 1 o 265.01 282.42
-9 2 1 o 1056.87 1065.77
-8 2 1 o 552.26 556.56
-7 2 1 o 1786.70 1767.71
-6 2 1 o 16.75 13.10
-5 2 1 o 1154.39 1216.23
-4 2 1 o 7.82 9.20
-3 2 1 o 5503.88 6070.14
-2 2 1 o 7297.15 7661.19
-1 2 1 o 2052.41 2134.09
0 2 1 o 3557.25 4030.82
1 2 1 o 16160.00 17816.58
2 2 1 o 14008.98 14973.73
3 2 1 o 201.92 143.79
4 2 1 o 1134.90 1157.41
5 2 1 o 1279.95 1159.35
6 2 1 o 19.23 22.12
7 2 1 o -1.38 1.40
8 2 1 o 313.69 299.98
9 2 1 o 505.11 493.34
10 2 1 o 51.85 58.07
11 2 1 o -6.08 0.28
12 2 1 o 52.26 30.59
13 2 1 o 1.48 3.92
-14 3 1 o 8.48 0.05
-13 3 1 o -7.87 5.56
-12 3 1 o -9.63 0.28
-11 3 1 o 29.13 31.06
-10 3 1 o 516.69 523.79
-9 3 1 o 394.25 404.14
-8 3 1 o 1.17 3.90
-7 3 1 o 545.13 477.11
-6 3 1 o 176.03 164.15
-5 3 1 o 598.83 614.62
-4 3 1 o 4.69 1.59
-3 3 1 o 124.08 122.75
-2 3 1 o 3613.69 3670.93
-1 3 1 o 8065.34 8201.62
0 3 1 o 4599.50 4765.86
1 3 1 o 24.82 19.59
2 3 1 o 3827.11 3483.24
3 3 1 o 726.69 723.76
4 3 1 o 3824.43 3662.64
5 3 1 o 963.36 891.78
6 3 1 o 32.25 43.35
7 3 1 o 1164.39 1182.80
8 3 1 o 144.33 148.49
9 3 1 o 110.09 123.19
10 3 1 o 4.87 5.97
11 3 1 o 46.29 45.73
12 3 1 o 10.10 0.11
13 3 1 o 5.64 0.35
-14 4 1 o -0.49 2.03
-13 4 1 o 6.10 8.35
-12 4 1 o 10.95 18.50
-11 4 1 o 53.04 44.22
-10 4 1 o 230.13 226.01
-9 4 1 o 588.80 538.00
-8 4 1 o 37.71 36.69
-7 4 1 o 723.93 731.03
-6 4 1 o 761.38 731.85
-5 4 1 o 434.03 422.64
-4 4 1 o 700.48 691.85
-3 4 1 o 2041.70 2078.30
-2 4 1 o 16.95 13.82
-1 4 1 o 2788.50 2959.55
0 4 1 o 317.85 316.36
1 4 1 o 1906.31 1980.21
2 4 1 o 1324.35 1388.39
3 4 1 o 266.14 214.90
4 4 1 o 259.69 263.88
5 4 1 o 1414.96 1260.48
6 4 1 o 990.43 954.15
7 4 1 o 8.94 15.46
8 4 1 o 2.68 1.69
9 4 1 o 4.17 2.87
10 4 1 o 6.14 0.46
11 4 1 o 93.93 104.06
12 4 1 o 209.86 205.97
13 4 1 o 11.88 10.80
-14 5 1 o 27.38 17.97
-13 5 1 o 5.81 12.42
-12 5 1 o 7.00 12.75
-11 5 1 o 29.87 36.71
-10 5 1 o 65.90 69.70
-9 5 1 o 62.17 72.14
-8 5 1 o 1692.24 1660.19
-7 5 1 o 45.13 42.17
-6 5 1 o 2430.32 2445.04
-5 5 1 o 798.74 700.31
-4 5 1 o 284.77 355.80
-3 5 1 o 1.60 0.94
-2 5 1 o 1366.65 1244.31
-1 5 1 o 1348.92 1222.54
0 5 1 o 1552.12 1567.74
1 5 1 o 498.76 522.87
2 5 1 o 684.40 786.59
3 5 1 o 14904.86 14611.40
4 5 1 o 377.69 326.14
5 5 1 o 333.17 296.77
6 5 1 o 135.86 131.06
7 5 1 o 451.92 420.65
8 5 1 o 30.77 27.36
9 5 1 o 458.58 431.33
10 5 1 o 103.72 107.35
11 5 1 o 472.37 417.15
12 5 1 o 42.74 41.53
13 5 1 o 56.63 28.92
-13 6 1 o 4.79 7.10
-12 6 1 o 16.11 9.21
-11 6 1 o 28.81 35.16
-10 6 1 o 82.23 89.98
-9 6 1 o 349.83 393.44
-8 6 1 o 64.09 59.45
-7 6 1 o 15.16 15.19
-6 6 1 o 91.30 88.53
-5 6 1 o 53.00 50.53
-4 6 1 o 86.18 81.55
-3 6 1 o 317.81 317.21
-2 6 1 o 1091.08 1071.78
-1 6 1 o 2368.01 2240.80
0 6 1 o 286.28 290.19
1 6 1 o 310.60 314.79
2 6 1 o 238.56 226.97
3 6 1 o 994.48 963.23
4 6 1 o 165.87 125.53
5 6 1 o 111.73 103.26
6 6 1 o 222.39 245.01
7 6 1 o 3.09 3.50
8 6 1 o 8.91 11.53
9 6 1 o 1.48 0.28
10 6 1 o 13.47 13.24
11 6 1 o 32.45 23.98
12 6 1 o 20.87 39.45
13 6 1 o -4.09 7.95
-13 7 1 o 6.57 0.07
-12 7 1 o 97.90 89.12
-11 7 1 o 3.97 1.79
-10 7 1 o 31.72 22.34
-9 7 1 o 388.61 355.40
-8 7 1 o 883.78 870.43
-7 7 1 o 297.27 328.85
-6 7 1 o 498.74 450.59
-5 7 1 o 47.06 55.71
-4 7 1 o 199.96 200.46
-3 7 1 o 168.49 191.10
-2 7 1 o 201.96 217.12
-1 7 1 o 3460.95 3207.76
0 7 1 o 59.30 43.05
1 7 1 o 999.81 962.78
2 7 1 o 19.81 17.95
3 7 1 o 3.42 2.04
4 7 1 o 280.71 246.01
5 7 1 o 1627.85 1474.66
6 7 1 o 222.70 222.03
7 7 1 o 769.88 713.61
8 7 1 o 59.69 54.06
9 7 1 o 142.34 135.49
10 7 1 o 165.34 153.06
11 7 1 o 87.83 84.30
12 7 1 o 20.10 12.57
-13 8 1 o 44.61 22.61
-12 8 1 o 49.92 48.77
-11 8 1 o 91.80 95.21
-10 8 1 o 64.26 83.75
-9 8 1 o 252.61 242.49
-8 8 1 o 6.82 5.02
-7 8 1 o 323.19 334.46
-6 8 1 o 143.96 146.20
-5 8 1 o 1204.50 1300.78
-4 8 1 o 8.04 5.84
-3 8 1 o 2.04 8.15
-2 8 1 o 11.13 6.99
-1 8 1 o 3.90 0.58
0 8 1 o 194.12 196.52
1 8 1 o 3612.26 3728.95
2 8 1 o 2505.58 2514.22
3 8 1 o 228.33 241.86
4 8 1 o 197.40 182.55
5 8 1 o 15.29 5.33
6 8 1 o 83.80 89.96
7 8 1 o 26.97 13.02
8 8 1 o 247.43 251.69
9 8 1 o -2.67 0.24
10 8 1 o 386.16 372.81
11 8 1 o 2.09 5.57
12 8 1 o 298.45 250.71
-13 9 1 o 16.07 15.79
-12 9 1 o 6.27 0.12
-11 9 1 o 43.73 39.82
-10 9 1 o -7.88 0.50
-9 9 1 o 235.20 240.26
-8 9 1 o 127.77 142.67
-7 9 1 o 24.14 17.93
-6 9 1 o 105.52 83.16
-5 9 1 o 749.27 711.05
-4 9 1 o 1097.66 1001.88
-3 9 1 o 250.17 236.14
-2 9 1 o 1487.27 1358.70
-1 9 1 o 17.04 17.82
0 9 1 o 2155.37 2103.61
1 9 1 o 698.55 673.55
2 9 1 o -2.28 0.05
3 9 1 o 249.06 267.34
4 9 1 o 10.08 0.17
5 9 1 o 24.78 17.67
6 9 1 o -6.12 10.98
7 9 1 o 27.50 30.59
8 9 1 o 12.46 26.28
9 9 1 o 5.97 0.07
10 9 1 o 12.04 3.06
11 9 1 o 4.90 0.20
12 9 1 o -1.95 4.85
-12 10 1 o 1.03 2.37
-11 10 1 o 58.95 36.07
-10 10 1 o -5.91 0.00
-9 10 1 o 15.81 15.29
-8 10 1 o 3.68 8.91
-7 10 1 o 867.26 884.22
-6 10 1 o 94.36 97.31
-5 10 1 o 25.06 21.46
-4 10 1 o 129.03 121.55
-3 10 1 o 71.81 82.59
-2 10 1 o 34.22 29.69
-1 10 1 o 21.99 38.37
0 10 1 o 91.15 87.34
1 10 1 o 139.74 135.03
2 10 1 o 492.45 473.45
3 10 1 o -6.23 0.08
4 10 1 o 458.68 466.94
5 10 1 o 47.25 37.09
6 10 1 o 195.25 187.92
7 10 1 o -8.95 0.10
8 10 1 o 55.69 36.63
9 10 1 o -2.01 4.19
10 10 1 o 43.74 39.02
11 10 1 o 14.72 22.26
-12 11 1 o -6.75 1.61
-11 11 1 o 21.33 31.19
-10 11 1 o 56.66 29.12
-9 11 1 o 4.46 2.82
-8 11 1 o 641.79 633.13
-7 11 1 o 699.85 714.12
-6 11 1 o 358.73 384.86
-5 11 1 o 510.56 490.34
-4 11 1 o 522.57 595.06
-3 11 1 o 49.99 45.22
-2 11 1 o 15.23 13.01
-1 11 1 o -4.64 0.07
0 11 1 o 95.37 100.14
1 11 1 o 961.23 949.92
2 11 1 o 866.63 854.69
3 11 1 o 1529.87 1462.35
4 11 1 o 830.84 842.62
5 11 1 o -5.12 4.82
6 11 1 o 294.86 272.43
7 11 1 o 7.70 10.04
8 11 1 o -2.90 0.08
9 11 1 o 111.40 107.71
10 11 1 o 10.73 2.67
11 11 1 o 82.99 80.53
-11 12 1 o 5.74 11.50
-10 12 1 o 34.55 16.03
-9 12 1 o 3.79 3.27
-8 12 1 o 6.90 0.80
-7 12 1 o 5.18 0.04
-6 12 1 o 41.23 27.53
-5 12 1 o 213.34 200.87
-4 12 1 o 12.05 28.24
-3 12 1 o 76.10 87.25
-2 12 1 o 229.11 245.26
-1 12 1 o 196.26 206.72
0 12 1 o -7.30 10.41
1 12 1 o 293.53 273.74
2 12 1 o 81.74 84.15
3 12 1 o 54.84 63.63
4 12 1 o -8.22 0.15
5 12 1 o 265.01 325.59
6 12 1 o 35.90 53.95
7 12 1 o 43.72 44.01
8 12 1 o 3.79 2.14
9 12 1 o 0.50 0.54
10 12 1 o 23.66 35.18
11 12 1 o -0.23 0.01
-11 13 1 o 52.59 48.84
-10 13 1 o 36.71 23.00
-9 13 1 o 7.94 0.24
-8 13 1 o 12.59 13.57
-7 13 1 o 30.12 28.81
-6 13 1 o 99.95 111.59
-5 13 1 o 558.27 586.89
-4 13 1 o 23.96 25.18
-3 13 1 o 0.13 0.00
-2 13 1 o 16.80 15.91
-1 13 1 o 17.36 14.26
0 13 1 o 57.51 68.56
1 13 1 o -0.81 3.73
2 13 1 o 318.31 331.20
3 13 1 o 1.00 2.46
4 13 1 o 333.10 280.11
5 13 1 o 415.65 422.54
6 13 1 o 159.04 166.80
7 13 1 o 61.93 65.69
8 13 1 o 17.52 23.53
9 13 1 o -0.02 8.35
10 13 1 o 126.69 114.97
-10 14 1 o 50.67 41.78
-9 14 1 o 68.12 70.55
-8 14 1 o 10.25 13.81
-7 14 1 o 67.00 53.54
-6 14 1 o 14.29 2.52
-5 14 1 o 57.14 60.20
-4 14 1 o 40.82 40.94
-3 14 1 o 324.60 315.32
-2 14 1 o 22.17 19.00
-1 14 1 o 161.73 157.91
0 14 1 o 11.01 16.48
1 14 1 o 489.44 503.72
2 14 1 o 29.29 21.81
3 14 1 o 256.49 243.47
4 14 1 o -5.76 6.35
5 14 1 o 120.03 101.57
6 14 1 o 42.74 40.32
7 14 1 o 58.73 81.33
8 14 1 o 38.72 33.57
9 14 1 o 13.03 24.47
10 14 1 o -1.38 9.91
-10 15 1 o 32.17 24.96
-9 15 1 o 88.99 107.91
-8 15 1 o 22.96 2.87
-7 15 1 o 13.50 8.64
-6 15 1 o 1.64 17.31
-5 15 1 o -5.33 1.14
-4 15 1 o 251.62 247.77
-3 15 1 o 12.96 0.33
-2 15 1 o 9.79 1.55
-1 15 1 o 4.45 8.06
0 15 1 o 346.64 316.31
1 15 1 o 40.99 42.09
2 15 1 o 175.43 158.64
3 15 1 o 59.21 64.25
4 15 1 o 103.66 108.62
5 15 1 o 25.64 43.23
6 15 1 o 14.87 22.07
7 15 1 o 5.70 1.23
8 15 1 o 5.28 2.32
9 15 1 o 42.86 45.99
-9 16 1 o -11.09 3.04
-8 16 1 o -10.03 0.53
-7 16 1 o 35.61 16.30
-6 16 1 o 22.21 17.25
-5 16 1 o -2.76 0.72
-4 16 1 o 35.76 3.59
-3 16 1 o 15.87 18.55
-2 16 1 o 59.01 49.07
-1 16 1 o -0.59 0.72
0 16 1 o 2.46 10.23
1 16 1 o 208.66 190.25
2 16 1 o -2.68 6.17
3 16 1 o 24.26 14.15
4 16 1 o 3.17 6.32
5 16 1 o -1.57 0.17
6 16 1 o 15.04 0.06
7 16 1 o 7.76 7.27
8 16 1 o -7.51 3.75
-8 17 1 o 86.29 39.39
-7 17 1 o 48.42 40.89
-6 17 1 o 112.02 106.62
-5 17 1 o 15.26 16.54
-4 17 1 o -6.81 10.34
-3 17 1 o 55.04 54.61
-2 17 1 o 261.05 261.76
-1 17 1 o -0.23 5.30
0 17 1 o 121.99 110.18
1 17 1 o -5.10 5.29
2 17 1 o 28.70 10.91
3 17 1 o 40.73 27.66
4 17 1 o -0.67 1.01
5 17 1 o 30.05 8.95
6 17 1 o 3.75 3.45
7 17 1 o 50.08 47.80
-7 18 1 o -11.55 0.02
-6 18 1 o 23.68 45.83
-5 18 1 o 1.89 0.01
-4 18 1 o -12.72 0.47
-3 18 1 o 33.93 36.29
-2 18 1 o 2.53 9.37
-1 18 1 o 4.87 5.52
0 18 1 o -1.39 0.73
1 18 1 o 54.90 47.64
2 18 1 o 7.66 1.46
3 18 1 o 2.81 0.83
4 18 1 o -7.59 0.50
5 18 1 o 5.61 1.94
6 18 1 o 9.38 5.06
-6 19 1 o 17.44 2.27
-5 19 1 o -4.17 0.16
-4 19 1 o 27.23 31.30
-3 19 1 o 18.46 37.16
-2 19 1 o 0.53 5.62
-1 19 1 o -4.37 0.14
0 19 1 o 32.63 22.45
1 19 1 o 0.36 0.54
2 19 1 o 5.39 8.99
3 19 1 o 2.64 0.78
4 19 1 o 1.40 3.43
5 19 1 o 11.69 6.87
-4 20 1 o 12.47 0.97
-3 20 1 o 10.42 2.73
-2 20 1 o 7.57 3.92
-1 20 1 o 4.51 1.80
0 20 1 o -6.39 0.09
1 20 1 o 36.59 33.18
2 20 1 o -1.25 0.13
3 20 1 o -0.12 6.22
-14 0 2 o 86.39 80.94
-13 0 2 o 34.60 38.17
-12 0 2 o 213.25 222.73
-11 0 2 o -9.09 5.42
-10 0 2 o 49.06 59.70
-9 0 2 o 194.65 189.02
-8 0 2 o 416.44 416.87
-7 0 2 o 393.38 493.44
-6 0 2 o 3.55 1.80
-5 0 2 o 16752.84 16604.58
-4 0 2 o 780.43 923.04
-3 0 2 o 16901.43 18076.52
-2 0 2 o 5243.69 5733.78
-1 0 2 o 4330.42 4419.58
0 0 2 o 97.23 91.77
1 0 2 o 688.82 747.90
2 0 2 o 377.03 382.77
3 0 2 o 569.48 669.61
4 0 2 o 11.20 0.09
5 0 2 o 869.52 844.70
6 0 2 o 575.98 597.06
7 0 2 o 4.15 11.36
8 0 2 o 986.48 1001.67
9 0 2 o 280.20 264.63
10 0 2 o 22.38 13.31
11 0 2 o 155.89 145.85
12 0 2 o 34.17 45.23
13 0 2 o 69.51 54.99
-14 1 2 o 16.37 6.29
-13 1 2 o 29.35 21.65
-12 1 2 o -5.04 0.00
-11 1 2 o -4.69 4.60
-10 1 2 o 145.35 163.69
-9 1 2 o 559.84 595.88
-8 1 2 o 12.03 12.47
-7 1 2 o 783.64 765.19
-6 1 2 o 178.58 167.87
-5 1 2 o 10.26 3.66
-4 1 2 o 883.65 868.37
-3 1 2 o 1378.11 1354.20
-2 1 2 o 4215.66 4321.21
-1 1 2 o 8032.52 8542.86
0 1 2 o 601.86 563.52
1 1 2 o 85.40 102.86
2 1 2 o 533.88 538.57
3 1 2 o 212.30 191.50
4 1 2 o 46.40 46.98
5 1 2 o 387.89 368.74
6 1 2 o 112.21 108.32
7 1 2 o 144.31 151.58
8 1 2 o 1730.89 1667.96
9 1 2 o -2.59 1.19
10 1 2 o 43.46 48.34
11 1 2 o 12.53 21.83
12 1 2 o 25.73 0.76
13 1 2 o 6.57 30.76
-14 2 2 o -0.88 3.01
-13 2 2 o 8.09 19.29
-12 2 2 o 19.90 20.71
-11 2 2 o 41.49 41.42
-10 2 2 o 77.56 82.67
-9 2 2 o -0.25 0.28
-8 2 2 o 30.39 33.71
-7 2 2 o 405.62 386.98
-6 2 2 o 127.02 141.84
-5 2 2 o 727.64 720.59
-4 2 2 o 2922.51 2776.51
-3 2 2 o 2345.83 2399.23
-2 2 2 o 1812.42 1782.95
-1 2 2 o 15748.79 16991.45
0 2 2 o 7313.50 7736.39
1 2 2 o 299.62 321.68
2 2 2 o 965.41 973.10
3 2 2 o 397.54 391.05
4 2 2 o 2.24 0.86
5 2 2 o 642.11 620.22
6 2 2 o 5.58 7.59
7 2 2 o 1.32 0.08
8 2 2 o 299.66 307.78
9 2 2 o 225.24 215.78
10 2 2 o 9.27 6.69
11 2 2 o 26.81 29.68
12 2 2 o 15.29 19.50
13 2 2 o 7.53 13.69
-14 3 2 o 3.19 1.72
-13 3 2 o 63.39 54.67
-12 3 2 o -4.69 1.15
-11 3 2 o -4.70 4.50
-10 3 2 o 43.90 45.63
-9 3 2 o 531.73 531.04
-8 3 2 o 42.53 37.95
-7 3 2 o 588.56 584.88
-6 3 2 o 1371.38 1259.85
-5 3 2 o 809.28 868.83
-4 3 2 o 287.99 299.38
-3 3 2 o 239.93 282.09
-2 3 2 o 1067.72 1139.51
-1 3 2 o -1.19 0.30
0 3 2 o 820.50 920.74
1 3 2 o 49.80 46.55
2 3 2 o 1286.66 1224.22
3 3 2 o 1889.22 1784.73
4 3 2 o 5682.85 5551.13
5 3 2 o 260.62 247.00
6 3 2 o 49.52 61.00
7 3 2 o 403.10 422.43
8 3 2 o 60.01 55.68
9 3 2 o 72.43 68.93
10 3 2 o 70.33 65.15
11 3 2 o 5.67 4.07
12 3 2 o 267.51 262.38
-14 4 2 o -1.00 0.15
-13 4 2 o 67.35 87.59
-12 4 2 o 45.72 35.89
-11 4 2 o 143.99 145.21
-10 4 2 o 702.98 723.00
-9 4 2 o 629.51 686.17
-8 4 2 o 1346.09 1367.86
-7 4 2 o 6.77 2.17
-6 4 2 o 1655.49 1595.67
-5 4 2 o 27.67 30.00
-4 4 2 o 18.11 16.16
-3 4 2 o 7.33 7.41
-2 4 2 o 2843.92 2704.51
-1 4 2 o 3373.26 3379.27
0 4 2 o 4787.75 4847.89
1 4 2 o 576.83 661.96
2 4 2 o -1.03 3.86
3 4 2 o 122.95 131.68
4 4 2 o 9.86 8.72
5 4 2 o 49.46 45.77
6 4 2 o 49.83 42.18
7 4 2 o 15.37 16.06
8 4 2 o 11.89 19.11
9 4 2 o 134.62 136.89
10 4 2 o -7.65 1.02
11 4 2 o 119.88 111.67
12 4 2 o 2.08 0.72
-14 5 2 o 6.14 0.04
-13 5 2 o -2.10 0.00
-12 5 2 o 3.86 3.06
-11 5 2 o 8.46 2.06
-10 5 2 o 88.70 76.93
-9 5 2 o 296.67 342.21
-8 5 2 o 68.30 56.18
-7 5 2 o 0.44 1.39
-6 5 2 o 2.60 2.24
-5 5 2 o -1.62 1.88
-4 5 2 o 58.79 48.87
-3 5 2 o 352.46 356.58
-2 5 2 o 1062.71 988.72
-1 5 2 o 0.54 0.22
0 5 2 o 196.32 215.59
1 5 2 o 1137.63 1152.63
2 5 2 o 357.81 330.99
3 5 2 o 1349.52 1212.06
4 5 2 o 179.15 164.25
5 5 2 o 78.66 71.00
6 5 2 o 279.98 273.37
7 5 2 o 324.62 311.11
8 5 2 o 16.69 15.82
9 5 2 o -2.94 0.80
10 5 2 o 18.62 7.97
11 5 2 o 13.03 22.22
12 5 2 o 2.52 5.33
-14 6 2 o 290.75 261.22
-13 6 2 o 12.54 7.87
-12 6 2 o 112.38 104.25
-11 6 2 o 385.99 394.66
-10 6 2 o 23.72 31.48
-9 6 2 o -2.22 0.47
-8 6 2 o 1010.67 1033.94
-7 6 2 o 140.47 139.89
-6 6 2 o 1013.15 918.80
-5 6 2 o 155.71 160.10
-4 6 2 o 4.05 3.14
-3 6 2 o 31.66 12.89
-2 6 2 o 2607.43 2715.01
-1 6 2 o 499.38 509.41
0 6 2 o 272.61 221.97
1 6 2 o 334.77 334.77
2 6 2 o 1526.73 1450.85
3 6 2 o 3547.04 3314.27
4 6 2 o 4.40 11.66
5 6 2 o -2.05 0.09
6 6 2 o 27.76 29.41
7 6 2 o 97.64 101.91
8 6 2 o 7.15 4.58
9 6 2 o 71.42 71.16
10 6 2 o 76.89 88.63
11 6 2 o 37.89 29.20
12 6 2 o -0.81 0.58
-13 7 2 o 48.04 52.01
-12 7 2 o 11.80 15.25
-11 7 2 o 142.97 156.03
-10 7 2 o 9.97 2.39
-9 7 2 o 450.07 458.86
-8 7 2 o 147.98 165.79
-7 7 2 o 573.94 605.81
-6 7 2 o 409.81 421.71
-5 7 2 o 1200.89 1236.09
-4 7 2 o 1.92 12.97
-3 7 2 o 478.06 473.68
-2 7 2 o 1039.68 1092.38
-1 7 2 o 13.21 9.74
0 7 2 o 232.54 215.63
1 7 2 o 604.07 614.57
2 7 2 o 769.09 880.26
3 7 2 o 374.59 311.00
4 7 2 o 556.78 456.34
5 7 2 o 287.94 215.01
6 7 2 o -1.49 0.32
7 7 2 o -1.90 1.22
8 7 2 o 130.66 132.60
9 7 2 o 64.68 54.79
10 7 2 o 34.54 39.81
11 7 2 o 3.91 1.56
12 7 2 o 115.43 116.34
-13 8 2 o 22.93 10.83
-12 8 2 o 5.60 5.68
-11 8 2 o 3.06 0.00
-10 8 2 o 87.70 84.62
-9 8 2 o 2.21 2.81
-8 8 2 o 170.31 168.59
-7 8 2 o 258.97 285.42
-6 8 2 o 123.39 128.34
-5 8 2 o -2.37 0.01
-4 8 2 o 118.51 103.72
-3 8 2 o 3.82 1.14
-2 8 2 o 1010.37 843.96
-1 8 2 o 165.09 124.89
0 8 2 o 283.93 252.48
1 8 2 o 43.12 45.04
2 8 2 o 996.40 899.70
3 8 2 o 100.03 117.02
4 8 2 o 119.64 108.52
5 8 2 o 151.23 131.02
6 8 2 o 25.20 17.17
7 8 2 o 170.15 199.57
8 8 2 o 192.89 211.39
9 8 2 o -4.00 0.54
10 8 2 o 14.00 4.43
11 8 2 o 2.11 0.15
12 8 2 o 2.99 0.32
-13 9 2 o 58.61 55.18
-12 9 2 o 6.52 6.98
-11 9 2 o 11.45 20.99
-10 9 2 o 20.20 7.41
-9 9 2 o 33.34 30.04
-8 9 2 o 9.00 6.43
-7 9 2 o 1165.10 1147.10
-6 9 2 o 116.55 101.67
-5 9 2 o 112.58 111.67
-4 9 2 o 52.74 54.66
-3 9 2 o 414.12 413.74
-2 9 2 o 451.67 380.91
-1 9 2 o 468.93 531.38
0 9 2 o 832.46 794.91
1 9 2 o 1124.33 1081.83
2 9 2 o 525.82 479.36
3 9 2 o 224.47 271.59
4 9 2 o 379.96 361.75
5 9 2 o 52.60 49.56
6 9 2 o 441.91 409.77
7 9 2 o 16.67 3.28
8 9 2 o 150.24 136.90
9 9 2 o 30.17 38.25
10 9 2 o 98.58 93.61
11 9 2 o 3.29 1.56
-12 10 2 o 8.89 4.83
-11 10 2 o 5.74 10.47
-10 10 2 o 7.23 20.71
-9 10 2 o 10.24 10.04
-8 10 2 o 11.04 9.06
-7 10 2 o 363.26 389.61
-6 10 2 o 140.26 116.36
-5 10 2 o 47.00 42.41
-4 10 2 o 463.21 457.64
-3 10 2 o 52.82 70.42
-2 10 2 o 399.45 368.72
-1 10 2 o 337.47 366.76
0 10 2 o 447.99 477.93
1 10 2 o 60.65 53.67
2 10 2 o 1236.11 1205.17
3 10 2 o 2582.68 2485.98
4 10 2 o 20.48 19.87
5 10 2 o 39.38 49.19
6 10 2 o 22.52 29.40
7 10 2 o 43.84 38.44
8 10 2 o 1.87 3.18
9 10 2 o 175.11 195.57
10 10 2 o 0.61 0.88
11 10 2 o 40.41 52.15
-12 11 2 o 19.81 7.42
-11 11 2 o 2.44 6.43
-10 11 2 o 39.51 46.88
-9 11 2 o -3.60 2.09
-8 11 2 o 7.99 4.18
-7 11 2 o 23.81 31.26
-6 11 2 o 540.86 509.09
-5 11 2 o 17.17 15.76
-4 11 2 o 40.66 53.33
-3 11 2 o 10.61 6.65
-2 11 2 o 25.68 23.50
-1 11 2 o 42.35 55.57
0 11 2 o 201.11 173.70
1 11 2 o 1.76 0.13
2 11 2 o 278.15 283.35
3 11 2 o 412.46 410.18
4 11 2 o 371.04 348.79
5 11 2 o 65.79 66.11
6 11 2 o 10.27 8.74
7 11 2 o 1.47 0.27
8 11 2 o 8.65 0.59
9 11 2 o -3.18 2.67
10 11 2 o 3.28 6.42
-12 12 2 o 24.51 18.58
-11 12 2 o -8.28 2.00
-10 12 2 o 7.21 7.91
-9 12 2 o 3.18 2.09
-8 12 2 o 88.59 92.77
-7 12 2 o 90.19 81.40
-6 12 2 o 59.28 64.14
-5 12 2 o 196.54 201.57
-4 12 2 o 3.25 6.35
-3 12 2 o 280.30 311.06
-2 12 2 o 252.87 251.03
-1 12 2 o 193.37 231.07
0 12 2 o 467.79 491.12
1 12 2 o 444.04 423.64
2 12 2 o 1922.32 1827.64
3 12 2 o 32.76 10.38
4 12 2 o 14.69 13.34
5 12 2 o 162.41 145.25
6 12 2 o 9.71 14.86
7 12 2 o 103.31 89.31
8 12 2 o -9.29 1.36
9 12 2 o 29.82 31.89
10 12 2 o 6.07 5.56
-11 13 2 o 16.59 17.03
-10 13 2 o -10.52 0.09
-9 13 2 o 39.36 42.15
-8 13 2 o 83.03 69.98
-7 13 2 o 288.54 297.88
-6 13 2 o 244.18 268.86
-5 13 2 o -7.04 0.43
-4 13 2 o -6.26 2.58
-3 13 2 o 266.56 270.73
-2 13 2 o 130.13 130.96
-1 13 2 o 9.34 17.25
0 13 2 o 133.85 135.54
1 13 2 o -3.23 4.07
2 13 2 o 600.11 571.25
3 13 2 o -5.76 0.92
4 13 2 o 377.49 339.32
5 13 2 o 23.50 31.46
6 13 2 o 5.30 8.79
7 13 2 o 23.46 27.58
8 13 2 o 5.10 11.46
9 13 2 o 10.45 1.21
10 13 2 o 67.82 33.87
-11 14 2 o 24.62 13.33
-10 14 2 o -9.35 0.00
-9 14 2 o 35.88 20.51
-8 14 2 o 40.05 47.88
-7 14 2 o -9.28 3.83
-6 14 2 o -0.10 11.29
-5 14 2 o 224.33 223.39
-4 14 2 o -5.96 1.08
-3 14 2 o 206.93 209.71
-2 14 2 o 93.87 98.11
-1 14 2 o 32.68 47.97
0 14 2 o 53.41 68.35
1 14 2 o 43.59 43.43
2 14 2 o 40.43 36.59
3 14 2 o 228.60 195.31
4 14 2 o 224.07 234.16
5 14 2 o 81.98 93.48
6 14 2 o 10.40 1.99
7 14 2 o 26.87 31.89
8 14 2 o 7.75 6.58
9 14 2 o 31.68 30.23
-10 15 2 o 1.26 2.18
-9 15 2 o 18.88 3.67
-8 15 2 o 11.85 19.27
-7 15 2 o 46.95 28.73
-6 15 2 o 21.98 14.55
-5 15 2 o 47.57 44.86
-4 15 2 o 493.26 525.07
-3 15 2 o 46.91 30.62
-2 15 2 o 133.22 142.07
-1 15 2 o -3.07 0.21
0 15 2 o 0.73 7.49
1 15 2 o 85.33 87.85
2 15 2 o 3.48 0.92
3 15 2 o 10.70 0.39
4 15 2 o 217.31 217.48
5 15 2 o 106.96 86.92
6 15 2 o 42.10 43.53
7 15 2 o 51.03 35.82
8 15 2 o 65.75 58.17
-9 16 2 o 24.32 25.14
-8 16 2 o 80.08 76.50
-7 16 2 o 69.27 66.46
-6 16 2 o 7.32 6.02
-5 16 2 o 15.41 4.03
-4 16 2 o 55.52 49.92
-3 16 2 o 44.26 42.75
-2 16 2 o 214.21 208.38
-1 16 2 o 3.52 2.94
0 16 2 o 0.35 0.96
1 16 2 o 26.53 32.27
2 16 2 o 7.50 9.90
3 16 2 o 65.95 74.68
4 16 2 o 32.60 42.27
5 16 2 o 221.06 239.66
6 16 2 o 5.90 5.54
7 16 2 o 101.23 76.17
8 16 2 o 40.75 0.10
-8 17 2 o -1.00 0.56
-7 17 2 o 3.02 20.05
-6 17 2 o 26.79 8.84
-5 17 2 o -0.78 6.11
-4 17 2 o -9.31 4.42
-3 17 2 o 50.26 54.24
-2 17 2 o 10.25 4.31
-1 17 2 o 19.21 19.25
0 17 2 o 66.76 53.80
1 17 2 o 53.21 60.78
2 17 2 o 39.13 27.80
3 17 2 o 53.38 65.79
4 17 2 o -0.33 0.35
5 17 2 o 15.07 23.27
6 17 2 o -12.63 0.18
7 17 2 o -0.91 0.17
-7 18 2 o 29.29 34.23
-6 18 2 o 33.89 26.89
-5 18 2 o 16.86 4.19
-4 18 2 o -7.60 1.22
-3 18 2 o 38.91 46.48
-2 18 2 o 38.67 31.84
-1 18 2 o 4.81 6.51
0 18 2 o -4.68 4.68
1 18 2 o 19.94 9.14
2 18 2 o 26.00 27.92
3 18 2 o -6.84 3.60
4 18 2 o -8.96 7.08
5 18 2 o 34.68 23.65
6 18 2 o 12.69 1.83
-6 19 2 o -1.25 4.09
-5 19 2 o 4.04 0.31
-4 19 2 o 17.27 0.33
-3 19 2 o 106.85 91.37
-2 19 2 o 5.52 6.40
-1 19 2 o 6.19 0.68
0 19 2 o 21.51 32.68
1 19 2 o 9.74 11.54
2 19 2 o -3.77 3.19
3 19 2 o 42.94 21.66
4 19 2 o 35.07 19.29
-4 20 2 o 16.09 2.68
-3 20 2 o 2.18 1.54
-2 20 2 o 14.26 20.74
-1 20 2 o -6.40 4.58
0 20 2 o 35.65 38.07
1 20 2 o 17.98 12.88
2 20 2 o -4.55 3.04
-14 1 3 o 58.29 49.34
-13 1 3 o 1.44 0.78
-12 1 3 o 46.46 41.55
-11 1 3 o 191.20 214.21
-10 1 3 o 62.61 67.10
-9 1 3 o 61.71 60.88
-8 1 3 o 508.58 451.89
-7 1 3 o 1129.00 1087.58
-6 1 3 o 993.32 846.29
-5 1 3 o 3591.18 3511.71
-4 1 3 o 18.60 24.07
-3 1 3 o 1050.66 1082.08
-2 1 3 o 408.73 383.49
-1 1 3 o 1166.50 1239.13
0 1 3 o 33.67 37.52
1 1 3 o 3086.59 3283.72
2 1 3 o 262.94 209.93
3 1 3 o 3714.87 3654.17
4 1 3 o 63.91 84.79
5 1 3 o 1806.85 1744.28
6 1 3 o 173.01 168.04
7 1 3 o 547.44 555.30
8 1 3 o 51.17 57.14
9 1 3 o 287.68 304.93
10 1 3 o 127.08 122.70
11 1 3 o 62.75 61.46
12 1 3 o 32.30 41.66
-14 2 3 o 32.35 9.90
-13 2 3 o 69.47 51.18
-12 2 3 o 51.92 45.34
-11 2 3 o 497.89 523.23
-10 2 3 o 126.24 139.80
-9 2 3 o 265.96 267.96
-8 2 3 o 194.78 191.69
-7 2 3 o 51.19 55.75
-6 2 3 o 2639.87 2488.73
-5 2 3 o 21.71 21.71
-4 2 3 o 1078.43 1063.63
-3 2 3 o 195.37 158.03
-2 2 3 o 8278.39 8597.55
-1 2 3 o 199.54 217.93
0 2 3 o 2049.76 1873.04
1 2 3 o 193.26 178.12
2 2 3 o 11.91 3.32
3 2 3 o 116.01 116.34
4 2 3 o 528.58 527.71
5 2 3 o 1.88 0.84
6 2 3 o 900.54 908.53
7 2 3 o -2.69 3.52
8 2 3 o 136.10 142.19
9 2 3 o 4.79 1.62
10 2 3 o 131.19 133.65
11 2 3 o 27.20 23.43
12 2 3 o 17.63 9.96
-14 3 3 o 35.23 27.40
-13 3 3 o -0.39 2.87
-12 3 3 o 1.49 3.12
-11 3 3 o 0.96 0.34
-10 3 3 o 37.42 39.76
-9 3 3 o 65.61 68.62
-8 3 3 o 66.43 78.89
-7 3 3 o 3.80 9.22
-6 3 3 o 29.69 46.95
-5 3 3 o 926.06 828.54
-4 3 3 o 1562.64 1452.30
-3 3 3 o 1738.28 1642.45
-2 3 3 o 1205.39 1273.34
-1 3 3 o 3302.96 3262.47
0 3 3 o 422.87 406.50
1 3 3 o 2267.37 2135.09
2 3 3 o 245.39 248.20
3 3 3 o 138.06 103.03
4 3 3 o 21.81 24.36
5 3 3 o 311.51 301.69
6 3 3 o 62.88 55.34
7 3 3 o -0.64 2.52
8 3 3 o 274.28 275.33
9 3 3 o -1.24 1.57
10 3 3 o 10.66 11.45
11 3 3 o 3.94 0.10
12 3 3 o 39.54 47.06
-14 4 3 o -4.34 0.02
-13 4 3 o 128.46 137.46
-12 4 3 o 84.77 88.63
-11 4 3 o -1.52 8.52
-10 4 3 o 166.68 167.57
-9 4 3 o 133.60 124.90
-8 4 3 o 188.83 185.74
-7 4 3 o 696.34 673.99
-6 4 3 o 997.20 979.14
-5 4 3 o 299.33 281.25
-4 4 3 o 1546.65 1641.62
-3 4 3 o 18.44 14.41
-2 4 3 o -0.62 0.43
-1 4 3 o 48.07 43.84
0 4 3 o 2757.89 2543.75
1 4 3 o 48.02 50.48
2 4 3 o 1908.27 1931.21
3 4 3 o 1092.17 1005.51
4 4 3 o 90.47 96.73
5 4 3 o 177.45 162.70
6 4 3 o 5.27 5.61
7 4 3 o 63.56 59.19
8 4 3 o 175.26 192.60
9 4 3 o 10.55 8.90
10 4 3 o 215.44 216.09
11 4 3 o 75.49 66.79
12 4 3 o 38.79 26.89
-14 5 3 o 1.70 5.86
-13 5 3 o -5.57 1.47
-12 5 3 o 123.96 130.53
-11 5 3 o 226.76 206.30
-10 5 3 o 497.61 489.17
-9 5 3 o 1.37 0.02
-8 5 3 o 424.27 459.86
-7 5 3 o 19.54 13.07
-6 5 3 o 307.73 316.09
-5 5 3 o 424.99 373.06
-4 5 3 o 4.31 7.88
-3 5 3 o 74.95 88.85
-2 5 3 o 1126.35 1077.86
-1 5 3 o 210.45 255.93
0 5 3 o 337.58 291.23
1 5 3 o 985.15 877.30
2 5 3 o 214.08 230.93
3 5 3 o 143.49 124.99
4 5 3 o 407.32 425.42
5 5 3 o 788.33 789.75
6 5 3 o 673.28 626.88
7 5 3 o 363.64 374.45
8 5 3 o 19.95 14.52
9 5 3 o 129.97 136.96
10 5 3 o 32.84 30.79
11 5 3 o 63.33 51.00
12 5 3 o 9.31 0.31
-14 6 3 o 29.51 14.22
-13 6 3 o 0.58 4.68
-12 6 3 o 22.50 19.88
-11 6 3 o 24.52 29.86
-10 6 3 o 5.43 7.85
-9 6 3 o 142.68 130.20
-8 6 3 o 37.94 42.79
-7 6 3 o 136.20 137.96
-6 6 3 o 169.40 170.59
-5 6 3 o 116.56 96.49
-4 6 3 o 162.99 151.22
-3 6 3 o 304.21 291.81
-2 6 3 o 107.04 104.87
-1 6 3 o -0.35 1.30
0 6 3 o 395.40 372.00
1 6 3 o 120.39 116.22
2 6 3 o 893.48 846.16
3 6 3 o 245.57 210.15
4 6 3 o 114.18 103.85
5 6 3 o 48.98 52.43
6 6 3 o 136.81 134.82
7 6 3 o 37.39 44.85
8 6 3 o 0.76 1.73
9 6 3 o 6.34 12.86
10 6 3 o 18.43 19.41
11 6 3 o 87.42 75.07
-13 7 3 o -7.06 4.22
-12 7 3 o 15.90 18.09
-11 7 3 o 9.20 14.62
-10 7 3 o 92.03 107.13
-9 7 3 o 44.32 38.65
-8 7 3 o 127.97 120.09
-7 7 3 o 475.15 490.14
-6 7 3 o 1349.56 1389.64
-5 7 3 o 431.65 405.87
-4 7 3 o 4455.48 4148.25
-3 7 3 o 6.45 10.90
-2 7 3 o 70.10 70.95
-1 7 3 o 496.33 487.53
0 7 3 o 9.69 10.37
1 7 3 o 43.54 47.53
2 7 3 o 506.45 501.91
3 7 3 o 981.35 947.86
4 7 3 o 172.31 165.66
5 7 3 o 200.59 208.08
6 7 3 o 253.57 216.95
7 7 3 o 33.35 34.45
8 7 3 o 161.89 186.29
9 7 3 o 197.68 184.73
10 7 3 o 31.94 32.78
11 7 3 o 0.21 0.11
-13 8 3 o 34.04 60.41
-12 8 3 o 2.11 0.18
-11 8 3 o 0.89 7.32
-10 8 3 o 12.23 15.22
-9 8 3 o 35.88 32.06
-8 8 3 o 27.53 24.39
-7 8 3 o 330.72 344.87
-6 8 3 o 452.96 441.26
-5 8 3 o 222.84 230.45
-4 8 3 o 202.14 188.84
-3 8 3 o 25.91 24.48
-2 8 3 o 60.36 40.91
-1 8 3 o 1321.74 1379.99
0 8 3 o 787.57 795.09
1 8 3 o 82.41 77.90
2 8 3 o -6.74 0.13
3 8 3 o 14.31 11.26
4 8 3 o 435.11 417.81
5 8 3 o 208.71 200.86
6 8 3 o 82.19 75.62
7 8 3 o 69.64 46.79
8 8 3 o 61.23 56.24
9 8 3 o 10.64 5.98
10 8 3 o 9.79 5.88
11 8 3 o 18.71 17.47
-13 9 3 o 4.81 6.54
-12 9 3 o -0.97 9.69
-11 9 3 o 32.22 43.06
-10 9 3 o 12.51 9.73
-9 9 3 o 54.81 44.50
-8 9 3 o 55.87 52.64
-7 9 3 o 961.26 931.11
-6 9 3 o 251.35 260.63
-5 9 3 o 1.98 5.79
-4 9 3 o 289.76 299.76
-3 9 3 o 12.37 8.45
-2 9 3 o 93.49 87.65
-1 9 3 o 540.91 476.66
0 9 3 o 249.23 248.32
1 9 3 o 101.77 70.76
2 9 3 o 22.06 16.56
3 9 3 o 1452.59 1441.97
4 9 3 o 265.71 256.41
5 9 3 o 1.88 17.54
6 9 3 o 43.53 48.83
7 9 3 o 118.92 134.09
8 9 3 o 23.92 30.76
9 9 3 o 11.04 3.60
10 9 3 o 26.06 19.76
11 9 3 o 19.95 11.86
-13 10 3 o 1.50 10.08
-12 10 3 o 11.11 20.81
-11 10 3 o 8.19 2.36
-10 10 3 o 17.18 8.44
-9 10 3 o -4.86 0.44
-8 10 3 o 111.50 107.24
-7 10 3 o 49.52 54.75
-6 10 3 o 319.72 267.73
-5 10 3 o 170.41 166.52
-4 10 3 o 1.70 3.62
-3 10 3 o 390.69 396.70
-2 10 3 o 124.22 118.54
-1 10 3 o 347.54 305.95
0 10 3 o 109.49 107.37
1 10 3 o -5.56 0.21
2 10 3 o 18.73 28.04
3 10 3 o 177.63 144.05
4 10 3 o 9.35 10.54
5 10 3 o 7.14 5.93
6 10 3 o 12.02 0.61
7 10 3 o 116.02 137.89
8 10 3 o 14.60 10.45
9 10 3 o 25.00 22.58
10 10 3 o 0.46 15.09
-12 11 3 o 7.35 6.69
-11 11 3 o 57.22 68.58
-10 11 3 o 8.91 3.29
-9 11 3 o 8.37 4.16
-8 11 3 o 329.36 299.30
-7 11 3 o 6.83 2.57
-6 11 3 o 8.27 16.52
-5 11 3 o 560.37 566.41
-4 11 3 o 4.27 3.82
-3 11 3 o 113.88 126.84
-2 11 3 o 2.34 0.74
-1 11 3 o 468.27 470.12
0 11 3 o 99.82 108.85
1 11 3 o 1455.79 1419.81
2 11 3 o 118.46 111.91
3 11 3 o 150.97 163.30
4 11 3 o 98.62 95.54
5 11 3 o 47.99 34.63
6 11 3 o 14.60 8.64
7 11 3 o 38.48 40.25
8 11 3 o 20.89 18.72
9 11 3 o 81.85 81.93
10 11 3 o 27.29 13.79
-12 12 3 o 22.18 30.78
-11 12 3 o 21.11 15.75
-10 12 3 o 14.79 11.75
-9 12 3 o 28.27 26.30
-8 12 3 o 13.89 20.58
-7 12 3 o 186.04 179.38
-6 12 3 o 26.58 23.01
-5 12 3 o -6.43 0.11
-4 12 3 o 3.40 1.72
-3 12 3 o 23.26 22.91
-2 12 3 o 79.39 90.02
-1 12 3 o 25.88 28.60
0 12 3 o 1461.52 1471.96
1 12 3 o 82.49 79.23
2 12 3 o 582.12 536.75
3 12 3 o 655.27 677.14
4 12 3 o 576.44 559.36
5 12 3 o 225.68 241.06
6 12 3 o 17.30 2.75
7 12 3 o 29.49 10.28
8 12 3 o 0.26 7.66
9 12 3 o 34.63 15.77
-11 13 3 o 18.72 0.90
-10 13 3 o 27.74 26.14
-9 13 3 o 48.36 45.07
-8 13 3 o 10.03 3.55
-7 13 3 o 7.71 8.37
-6 13 3 o 13.38 4.20
-5 13 3 o 6.41 6.68
-4 13 3 o 247.57 250.35
-3 13 3 o 148.66 160.12
-2 13 3 o 34.17 40.18
-1 13 3 o 8.77 8.12
0 13 3 o 167.74 172.55
1 13 3 o 31.30 26.77
2 13 3 o 58.60 66.95
3 13 3 o 15.28 16.30
4 13 3 o 88.13 97.24
5 13 3 o 329.22 302.55
6 13 3 o 4.73 0.47
7 13 3 o 14.19 10.45
8 13 3 o -2.79 0.14
9 13 3 o -6.75 5.95
-11 14 3 o 77.43 60.90
-10 14 3 o -0.77 3.62
-9 14 3 o -6.26 1.06
-8 14 3 o 5.81 1.07
-7 14 3 o 90.60 95.84
-6 14 3 o 192.72 205.59
-5 14 3 o 44.52 25.20
-4 14 3 o 175.37 205.99
-3 14 3 o 30.44 44.45
-2 14 3 o 343.09 339.29
-1 14 3 o 147.38 141.63
0 14 3 o 564.55 562.14
1 14 3 o 125.67 121.61
2 14 3 o 215.02 212.98
3 14 3 o 135.24 135.71
4 14 3 o 596.41 573.67
5 14 3 o -10.00 2.65
6 14 3 o 85.91 53.77
7 14 3 o 18.47 10.23
8 14 3 o 58.37 54.33
-10 15 3 o 36.09 47.52
-9 15 3 o 23.21 13.59
-8 15 3 o 50.21 45.76
-7 15 3 o 40.34 31.17
-6 15 3 o 31.44 37.37
-5 15 3 o 50.69 49.25
-4 15 3 o 11.00 21.28
-3 15 3 o 16.36 22.82
-2 15 3 o 165.87 153.94
-1 15 3 o 101.10 90.57
0 15 3 o 5.25 4.46
1 15 3 o 27.54 32.42
2 15 3 o 14.19 0.34
3 15 3 o 271.11 270.74
4 15 3 o 6.18 19.52
5 15 3 o -9.91 2.68
6 15 3 o 32.53 26.96
7 15 3 o -10.90 0.01
-9 16 3 o -6.56 8.33
-8 16 3 o 1.68 5.71
-7 16 3 o 12.10 7.85
-6 16 3 o 23.79 24.22
-5 16 3 o 7.25 4.79
-4 16 3 o 163.98 169.57
-3 16 3 o 74.75 76.20
-2 16 3 o 115.51 144.86
-1 16 3 o 50.44 54.17
0 16 3 o -6.10 0.34
1 16 3 o 35.33 17.65
2 16 3 o 42.73 34.17
3 16 3 o -6.23 3.93
4 16 3 o 6.02 10.30
5 16 3 o 5.52 10.24
6 16 3 o 142.50 142.16
7 16 3 o 30.47 1.66
-8 17 3 o 43.71 37.01
-7 17 3 o -7.47 0.01
-6 17 3 o 3.39 1.13
-5 17 3 o 277.02 242.90
-4 17 3 o -0.62 15.33
-3 17 3 o 6.87 19.99
-2 17 3 o 55.19 31.33
-1 17 3 o 133.03 136.98
0 17 3 o 10.55 11.11
1 17 3 o 33.17 9.15
2 17 3 o -5.17 2.96
3 17 3 o 5.52 0.05
4 17 3 o 57.24 38.68
5 17 3 o 172.60 158.41
6 17 3 o 24.75 1.84
-7 18 3 o 72.65 88.94
-6 18 3 o 12.83 8.47
-5 18 3 o 15.52 34.52
-4 18 3 o 21.54 22.77
-3 18 3 o 41.76 44.75
-2 18 3 o 2.27 1.68
-1 18 3 o 22.03 26.02
0 18 3 o 34.19 35.05
1 18 3 o 9.26 11.84
2 18 3 o 82.34 56.81
3 18 3 o 47.65 24.76
4 18 3 o 44.76 42.92
5 18 3 o 36.00 41.93
-5 19 3 o 4.08 7.09
-4 19 3 o -9.42 0.53
-3 19 3 o 46.48 45.92
-2 19 3 o 7.69 14.11
-1 19 3 o 16.71 4.64
0 19 3 o -1.61 0.90
1 19 3 o 2.34 7.59
2 19 3 o 40.65 38.66
3 19 3 o -7.19 1.30
-3 20 3 o 24.31 31.22
-2 20 3 o 51.49 58.54
-1 20 3 o -3.12 2.97
0 20 3 o 47.84 33.17
1 20 3 o 26.55 8.01
-14 0 4 o 31.34 43.25
-13 0 4 o -4.05 3.48
-12 0 4 o 38.35 40.27
-11 0 4 o 169.18 149.73
-10 0 4 o 226.95 266.33
-9 0 4 o 125.18 140.99
-8 0 4 o 218.35 169.61
-7 0 4 o 594.53 560.62
-6 0 4 o 104.56 112.58
-5 0 4 o 105.75 81.57
-4 0 4 o 1646.34 1474.81
-3 0 4 o -3.20 3.95
-2 0 4 o 590.95 567.27
-1 0 4 o 3862.98 3958.58
0 0 4 o 23.69 18.82
1 0 4 o 1534.36 1571.97
2 0 4 o 59.16 45.66
3 0 4 o 1713.08 1806.75
4 0 4 o 932.48 911.74
5 0 4 o 751.98 763.52
6 0 4 o -6.50 1.90
7 0 4 o 335.68 336.04
8 0 4 o -2.91 0.30
9 0 4 o 77.05 81.86
10 0 4 o 81.72 70.54
11 0 4 o 6.72 0.14
-14 1 4 o 20.84 4.94
-13 1 4 o 32.42 27.51
-12 1 4 o 71.38 62.34
-11 1 4 o 58.03 65.27
-10 1 4 o 33.73 34.48
-9 1 4 o 3.62 3.04
-8 1 4 o 11.92 11.05
-7 1 4 o 215.73 202.12
-6 1 4 o 1120.01 1047.14
-5 1 4 o 283.76 287.12
-4 1 4 o 1224.31 1233.38
-3 1 4 o 103.29 95.12
-2 1 4 o 1658.36 1496.10
-1 1 4 o 389.65 330.53
0 1 4 o 114.12 116.61
1 1 4 o 21.74 22.42
2 1 4 o 178.82 177.51
3 1 4 o 611.73 607.85
4 1 4 o 1174.59 1166.35
5 1 4 o 224.59 240.72
6 1 4 o 673.34 668.71
7 1 4 o 293.51 308.24
8 1 4 o 62.14 57.09
9 1 4 o 120.25 117.39
10 1 4 o -2.24 0.09
11 1 4 o 46.30 42.52
-14 2 4 o 16.98 15.24
-13 2 4 o 5.96 14.49
-12 2 4 o 100.15 117.65
-11 2 4 o -5.68 0.28
-10 2 4 o 0.75 1.36
-9 2 4 o 33.26 25.23
-8 2 4 o 27.05 24.43
-7 2 4 o 137.30 116.86
-6 2 4 o 224.44 183.31
-5 2 4 o 1143.34 1121.23
-4 2 4 o 740.39 713.29
-3 2 4 o 838.97 1010.72
-2 2 4 o 704.09 739.93
-1 2 4 o 369.69 361.55
0 2 4 o 92.94 93.65
1 2 4 o 522.68 457.66
2 2 4 o 172.68 145.05
3 2 4 o 163.88 184.60
4 2 4 o 3.08 3.23
5 2 4 o 239.43 234.29
6 2 4 o 28.80 38.29
7 2 4 o 187.85 178.63
8 2 4 o 68.87 61.79
9 2 4 o -0.07 3.49
10 2 4 o -1.91 0.74
11 2 4 o 22.87 23.22
-14 3 4 o 72.39 65.52
-13 3 4 o -2.50 0.27
-12 3 4 o 28.21 17.81
-11 3 4 o 539.34 576.08
-10 3 4 o 220.79 207.68
-9 3 4 o 118.14 130.35
-8 3 4 o 301.75 287.45
-7 3 4 o 101.61 96.77
-6 3 4 o 104.42 98.99
-5 3 4 o 13.83 16.03
-4 3 4 o 147.28 161.96
-3 3 4 o 891.42 976.31
-2 3 4 o 3189.02 3338.45
-1 3 4 o 522.69 432.77
0 3 4 o 1254.53 1369.44
1 3 4 o 384.63 365.41
2 3 4 o 2227.38 2274.74
3 3 4 o 0.12 0.15
4 3 4 o 213.83 220.69
5 3 4 o 160.91 152.09
6 3 4 o 74.35 83.32
7 3 4 o 244.71 231.42
8 3 4 o 272.14 295.04
9 3 4 o 78.52 63.92
10 3 4 o -3.56 8.11
11 3 4 o 62.08 56.92
-14 4 4 o 29.85 33.71
-13 4 4 o 110.02 111.89
-12 4 4 o 117.48 119.51
-11 4 4 o 153.43 146.95
-10 4 4 o 79.29 78.52
-9 4 4 o 72.54 70.68
-8 4 4 o 76.82 65.22
-7 4 4 o 138.72 143.65
-6 4 4 o 9.67 10.05
-5 4 4 o 624.14 596.07
-4 4 4 o 1237.51 1039.41
-3 4 4 o 82.35 81.48
-2 4 4 o 2512.87 2423.45
-1 4 4 o 65.60 67.27
0 4 4 o -0.76 1.42
1 4 4 o 250.84 246.24
2 4 4 o 57.71 55.29
3 4 4 o 119.73 111.04
4 4 4 o 13.21 15.95
5 4 4 o 214.61 232.57
6 4 4 o 426.51 438.44
7 4 4 o 31.79 37.89
8 4 4 o 0.57 4.83
9 4 4 o 2.39 1.57
10 4 4 o 172.72 132.58
11 4 4 o 13.16 6.89
-14 5 4 o -1.13 5.04
-13 5 4 o 44.45 39.79
-12 5 4 o 133.55 147.60
-11 5 4 o -1.81 0.11
-10 5 4 o 60.80 57.89
-9 5 4 o 0.29 0.41
-8 5 4 o 15.23 14.35
-7 5 4 o 604.41 576.54
-6 5 4 o 300.14 314.64
-5 5 4 o 96.21 87.31
-4 5 4 o 39.37 25.28
-3 5 4 o 2633.98 2345.16
-2 5 4 o 527.19 504.78
-1 5 4 o 1227.44 1234.75
0 5 4 o 1542.83 1444.15
1 5 4 o 694.80 722.67
2 5 4 o 105.21 104.90
3 5 4 o 153.25 156.39
4 5 4 o 4.02 5.57
5 5 4 o 17.60 21.54
6 5 4 o 59.94 63.66
7 5 4 o 5.68 2.13
8 5 4 o 25.90 20.89
9 5 4 o 6.93 6.88
10 5 4 o 0.11 0.85
11 5 4 o 3.70 1.44
-14 6 4 o 14.04 19.69
-13 6 4 o 36.65 22.43
-12 6 4 o 15.15 17.74
-11 6 4 o 250.09 232.15
-10 6 4 o 290.22 288.98
-9 6 4 o 204.40 211.71
-8 6 4 o 6.64 3.85
-7 6 4 o 145.74 164.74
-6 6 4 o 1228.70 1120.39
-5 6 4 o 206.98 209.88
-4 6 4 o 3.83 3.20
-3 6 4 o 7.67 8.96
-2 6 4 o 1918.48 1982.03
-1 6 4 o 1549.58 1532.71
0 6 4 o -1.20 0.14
1 6 4 o 1524.26 1522.61
2 6 4 o -0.50 2.08
3 6 4 o 526.39 519.40
4 6 4 o 25.81 23.94
5 6 4 o 7.36 3.40
6 6 4 o 1.68 0.17
7 6 4 o 15.76 16.01
8 6 4 o 179.03 151.22
9 6 4 o 13.28 15.51
10 6 4 o 163.73 165.91
-13 7 4 o 13.98 0.12
-12 7 4 o 3.76 0.08
-11 7 4 o -4.22 2.21
-10 7 4 o 201.83 188.79
-9 7 4 o 37.79 37.54
-8 7 4 o 382.41 392.89
-7 7 4 o 5.08 3.80
-6 7 4 o 476.12 476.17
-5 7 4 o 52.54 48.61
-4 7 4 o 133.63 124.85
-3 7 4 o 4.11 1.01
-2 7 4 o 68.43 55.96
-1 7 4 o 114.30 121.05
0 7 4 o 350.01 339.10
1 7 4 o 389.26 403.82
2 7 4 o 107.77 109.25
3 7 4 o 10.18 6.48
4 7 4 o 29.44 30.82
5 7 4 o 297.26 306.42
6 7 4 o 185.18 209.53
7 7 4 o 98.72 104.40
8 7 4 o 0.24 0.71
9 7 4 o 49.14 45.62
10 7 4 o 25.42 36.94
-13 8 4 o 3.30 5.32
-12 8 4 o 48.03 42.84
-11 8 4 o 13.04 9.51
-10 8 4 o 9.11 0.34
-9 8 4 o 262.86 252.51
-8 8 4 o 147.25 132.69
-7 8 4 o 74.06 75.57
-6 8 4 o 27.08 23.80
-5 8 4 o 206.22 181.23
-4 8 4 o 33.19 37.29
-3 8 4 o 10.46 10.21
-2 8 4 o 8.36 11.51
-1 8 4 o 446.32 426.67
0 8 4 o 626.93 583.96
1 8 4 o 13.78 17.12
2 8 4 o 16.20 19.75
3 8 4 o 73.05 84.22
4 8 4 o 107.14 115.95
5 8 4 o 101.33 122.58
6 8 4 o 119.59 113.17
7 8 4 o 18.12 18.43
8 8 4 o 49.20 47.32
9 8 4 o 2.94 3.27
10 8 4 o -3.41 0.30
-13 9 4 o 8.71 9.40
-12 9 4 o 30.72 20.82
-11 9 4 o 63.86 74.18
-10 9 4 o 268.27 295.22
-9 9 4 o 26.49 21.50
-8 9 4 o 41.40 27.80
-7 9 4 o 599.84 600.83
-6 9 4 o 622.96 629.71
-5 9 4 o 9.46 11.70
-4 9 4 o 211.42 237.94
-3 9 4 o -2.75 0.82
-2 9 4 o 682.99 646.23
-1 9 4 o 145.33 158.21
0 9 4 o 349.07 368.32
1 9 4 o 394.64 419.80
2 9 4 o 340.77 336.23
3 9 4 o 353.51 333.93
4 9 4 o 68.64 81.66
5 9 4 o 80.84 85.07
6 9 4 o 5.16 4.68
7 9 4 o 206.32 210.78
8 9 4 o 8.87 10.97
9 9 4 o -4.71 1.66
10 9 4 o 40.08 16.60
-12 10 4 o 31.05 10.94
-11 10 4 o 34.49 45.40
-10 10 4 o 54.49 62.08
-9 10 4 o 336.80 336.77
-8 10 4 o 1.45 1.97
-7 10 4 o 237.15 243.85
-6 10 4 o 148.12 138.15
-5 10 4 o 393.08 372.07
-4 10 4 o 28.98 17.05
-3 10 4 o 420.72 413.69
-2 10 4 o 34.32 43.73
-1 10 4 o 632.12 603.78
0 10 4 o 10.67 5.81
1 10 4 o 1545.88 1533.35
2 10 4 o 142.92 130.60
3 10 4 o 56.91 50.27
4 10 4 o 133.56 139.97
5 10 4 o 73.80 62.79
6 10 4 o 220.95 239.08
7 10 4 o 18.51 18.65
8 10 4 o 30.87 29.01
9 10 4 o 22.50 17.25
-12 11 4 o -2.57 1.44
-11 11 4 o 22.46 38.52
-10 11 4 o 15.98 18.42
-9 11 4 o -4.17 0.81
-8 11 4 o 11.60 0.43
-7 11 4 o 52.00 58.48
-6 11 4 o 21.49 21.36
-5 11 4 o -1.09 0.23
-4 11 4 o -4.61 0.07
-3 11 4 o 110.66 114.90
-2 11 4 o 105.52 108.70
-1 11 4 o 337.48 327.34
0 11 4 o 120.55 117.80
1 11 4 o 3.49 2.66
2 11 4 o 169.92 183.19
3 11 4 o 161.78 166.18
4 11 4 o 7.64 10.50
5 11 4 o -3.93 1.62
6 11 4 o 10.69 1.65
7 11 4 o 1.86 6.38
8 11 4 o -0.52 1.85
9 11 4 o 56.58 64.81
-12 12 4 o 49.84 54.59
-11 12 4 o 4.30 8.89
-10 12 4 o 8.17 11.91
-9 12 4 o 35.03 32.31
-8 12 4 o 3.79 0.02
-7 12 4 o 11.84 2.39
-6 12 4 o 72.31 62.14
-5 12 4 o 539.72 536.65
-4 12 4 o 21.30 35.34
-3 12 4 o 479.98 486.61
-2 12 4 o -1.10 1.73
-1 12 4 o 797.08 829.82
0 12 4 o 87.68 68.07
1 12 4 o 173.32 156.47
2 12 4 o 233.80 244.11
3 12 4 o 159.85 138.25
4 12 4 o 18.98 16.50
5 12 4 o 47.09 43.58
6 12 4 o 1.73 4.18
7 12 4 o 12.30 21.18
8 12 4 o 40.06 28.64
-11 13 4 o 28.98 19.01
-10 13 4 o 9.77 14.09
-9 13 4 o 6.69 6.98
-8 13 4 o 45.26 42.39
-7 13 4 o 51.87 55.28
-6 13 4 o 107.68 107.49
-5 13 4 o 11.98 12.58
-4 13 4 o 206.16 174.99
-3 13 4 o 46.90 53.06
-2 13 4 o 19.41 17.93
-1 13 4 o 0.31 1.76
0 13 4 o 425.07 450.02
1 13 4 o 44.51 52.94
2 13 4 o 36.60 35.37
3 13 4 o 3.68 1.90
4 13 4 o 46.78 49.33
5 13 4 o 69.57 77.77
6 13 4 o -1.90 6.65
7 13 4 o 23.58 28.59
8 13 4 o 13.01 7.45
-10 14 4 o 61.13 64.79
-9 14 4 o -2.62 0.42
-8 14 4 o 30.72 40.73
-7 14 4 o 18.57 18.19
-6 14 4 o 180.51 150.17
-5 14 4 o 13.71 10.21
-4 14 4 o 13.00 3.83
-3 14 4 o 6.94 5.65
-2 14 4 o 12.70 12.89
-1 14 4 o 39.23 45.87
0 14 4 o 149.16 122.29
1 14 4 o 35.47 38.29
2 14 4 o 94.72 88.48
3 14 4 o 13.87 17.96
4 14 4 o 10.63 0.91
5 14 4 o -7.51 1.10
6 14 4 o 123.12 98.63
7 14 4 o 22.07 11.89
-10 15 4 o 11.52 13.05
-9 15 4 o 4.80 2.21
-8 15 4 o 39.69 38.20
-7 15 4 o 31.83 46.73
-6 15 4 o 22.80 25.16
-5 15 4 o 1.81 0.00
-4 15 4 o 71.00 69.60
-3 15 4 o 49.88 58.45
-2 15 4 o 7.04 7.00
-1 15 4 o 4.85 2.51
0 15 4 o 103.51 87.70
1 15 4 o 134.81 131.68
2 15 4 o -1.97 1.94
3 15 4 o 79.02 64.54
4 15 4 o 134.70 125.28
5 15 4 o 7.22 35.52
6 15 4 o 108.88 95.25
-9 16 4 o 74.18 68.64
-8 16 4 o 93.34 76.64
-7 16 4 o -3.53 2.13
-6 16 4 o 112.92 116.86
-5 16 4 o 199.71 207.21
-4 16 4 o 30.68 32.83
-3 16 4 o 39.78 33.65
-2 16 4 o -1.62 0.00
-1 16 4 o 7.07 3.69
0 16 4 o 1.50 1.05
1 16 4 o 142.93 108.48
2 16 4 o 29.06 17.95
3 16 4 o 73.78 70.68
4 16 4 o 42.74 43.59
5 16 4 o 12.49 26.63
6 16 4 o 46.03 48.14
-8 17 4 o 56.17 17.48
-7 17 4 o 13.36 6.53
-6 17 4 o 97.75 80.61
-5 17 4 o 21.55 18.65
-4 17 4 o 13.83 18.50
-3 17 4 o -5.89 0.00
-2 17 4 o 52.31 61.43
-1 17 4 o 47.83 43.80
0 17 4 o 41.13 28.94
1 17 4 o -6.96 7.27
2 17 4 o 23.96 11.84
3 17 4 o 28.13 14.21
4 17 4 o 23.00 8.48
5 17 4 o 5.01 3.50
-6 18 4 o 11.33 5.11
-5 18 4 o 0.45 4.72
-4 18 4 o 3.16 4.16
-3 18 4 o 0.64 4.52
-2 18 4 o 36.34 35.19
-1 18 4 o 188.64 175.89
0 18 4 o -10.02 2.61
1 18 4 o 1.19 0.34
2 18 4 o 7.22 3.69
3 18 4 o -13.72 2.82
-5 19 4 o -3.20 4.76
-4 19 4 o 151.78 174.73
-3 19 4 o 10.86 4.40
-2 19 4 o 4.09 1.44
-1 19 4 o 37.26 46.85
0 19 4 o -10.72 3.08
1 19 4 o 13.99 7.38
-14 1 5 o 15.90 10.40
-13 1 5 o 31.57 47.86
-12 1 5 o 37.19 34.38
-11 1 5 o 3.50 1.45
-10 1 5 o 7.95 3.21
-9 1 5 o 197.04 194.02
-8 1 5 o 331.47 322.06
-7 1 5 o 281.62 273.71
-6 1 5 o 164.13 171.86
-5 1 5 o 78.64 74.29
-4 1 5 o 651.55 624.07
-3 1 5 o 901.93 839.17
-2 1 5 o 143.52 170.30
-1 1 5 o 30.65 44.89
0 1 5 o 59.91 67.23
1 1 5 o 594.44 598.39
2 1 5 o 1210.39 1194.10
3 1 5 o 64.66 55.34
4 1 5 o 560.84 604.73
5 1 5 o 2.00 1.21
6 1 5 o 427.99 450.54
7 1 5 o 72.74 77.02
8 1 5 o 28.03 21.13
9 1 5 o 13.00 10.57
10 1 5 o 79.92 77.22
-14 2 5 o 140.69 130.45
-13 2 5 o 88.15 87.18
-12 2 5 o 26.76 32.16
-11 2 5 o 14.64 9.29
-10 2 5 o 13.30 5.06
-9 2 5 o 7.25 11.47
-8 2 5 o 234.97 240.62
-7 2 5 o 364.34 344.54
-6 2 5 o 425.89 429.91
-5 2 5 o 11.30 6.52
-4 2 5 o 525.65 494.37
-3 2 5 o 1.34 0.16
-2 2 5 o 78.37 58.05
-1 2 5 o 782.25 661.04
0 2 5 o 1059.87 1016.80
1 2 5 o 146.72 158.68
2 2 5 o 2340.10 2330.77
3 2 5 o 892.89 901.29
4 2 5 o 9.43 8.93
5 2 5 o 238.86 234.43
6 2 5 o 187.97 202.24
7 2 5 o 98.61 102.58
8 2 5 o 86.87 73.14
9 2 5 o 143.65 136.67
10 2 5 o -4.56 0.09
-14 3 5 o -4.28 2.65
-13 3 5 o 27.42 36.96
-12 3 5 o 27.87 34.96
-11 3 5 o 81.92 83.93
-10 3 5 o 9.70 1.99
-9 3 5 o 3.79 1.21
-8 3 5 o 22.78 28.75
-7 3 5 o 2.94 0.01
-6 3 5 o 183.62 183.32
-5 3 5 o 68.05 59.49
-4 3 5 o 363.30 333.59
-3 3 5 o 900.32 901.49
-2 3 5 o 501.62 567.02
-1 3 5 o 175.18 159.08
0 3 5 o 461.73 453.02
1 3 5 o 17.57 17.66
2 3 5 o 3.55 1.73
3 3 5 o 251.68 284.48
4 3 5 o 110.44 105.51
5 3 5 o 201.67 222.61
6 3 5 o 122.35 125.09
7 3 5 o 14.72 9.10
8 3 5 o 5.37 3.28
9 3 5 o 0.20 2.10
10 3 5 o 2.94 7.79
-14 4 5 o -1.29 0.10
-13 4 5 o -6.70 2.68
-12 4 5 o 12.34 16.53
-11 4 5 o -4.78 0.41
-10 4 5 o 76.12 54.80
-9 4 5 o 8.16 3.76
-8 4 5 o 336.01 325.95
-7 4 5 o 217.40 202.66
-6 4 5 o 66.13 45.72
-5 4 5 o 22.60 23.86
-4 4 5 o 938.74 914.27
-3 4 5 o 1609.77 1529.29
-2 4 5 o 400.37 437.95
-1 4 5 o 382.06 381.17
0 4 5 o 421.97 387.38
1 4 5 o 8.89 8.52
2 4 5 o -0.10 0.10
3 4 5 o 105.54 94.82
4 4 5 o 24.29 27.39
5 4 5 o 431.02 405.16
6 4 5 o 47.16 51.26
7 4 5 o 145.83 135.36
8 4 5 o 69.43 65.66
9 4 5 o 55.67 42.44
10 4 5 o 54.48 46.84
-14 5 5 o 58.43 68.34
-13 5 5 o 234.45 239.74
-12 5 5 o 36.87 22.17
-11 5 5 o 4.57 1.91
-10 5 5 o 212.58 251.09
-9 5 5 o 208.51 200.28
-8 5 5 o 2.16 1.75
-7 5 5 o 1824.38 1741.02
-6 5 5 o 0.70 0.31
-5 5 5 o 948.34 889.32
-4 5 5 o 22.04 14.11
-3 5 5 o 210.85 233.76
-2 5 5 o 985.56 1008.85
-1 5 5 o 4.22 4.89
0 5 5 o 50.99 47.06
1 5 5 o 582.88 599.28
2 5 5 o 1364.49 1449.84
3 5 5 o 2.12 2.62
4 5 5 o 639.55 630.75
5 5 5 o 40.87 45.30
6 5 5 o 428.16 409.07
7 5 5 o 10.33 14.88
8 5 5 o 63.65 54.86
9 5 5 o 3.65 4.96
10 5 5 o 83.79 75.37
-14 6 5 o 35.07 26.13
-13 6 5 o -1.46 0.33
-12 6 5 o 57.71 59.74
-11 6 5 o 192.56 200.97
-10 6 5 o 21.39 29.52
-9 6 5 o 4.59 0.98
-8 6 5 o 45.44 40.72
-7 6 5 o 1.46 1.98
-6 6 5 o 19.35 19.07
-5 6 5 o 108.90 101.75
-4 6 5 o 554.70 487.51
-3 6 5 o 184.00 191.64
-2 6 5 o 556.04 557.16
-1 6 5 o 71.59 68.89
0 6 5 o 17.12 17.28
1 6 5 o 400.71 399.38
2 6 5 o 324.34 348.58
3 6 5 o 491.42 535.49
4 6 5 o 0.56 0.03
5 6 5 o 116.75 123.04
6 6 5 o 94.67 107.05
7 6 5 o 42.58 43.10
8 6 5 o 19.59 23.71
9 6 5 o 10.90 0.26
10 6 5 o 2.60 0.04
-13 7 5 o 4.31 3.25
-12 7 5 o 6.78 4.14
-11 7 5 o 91.91 76.25
-10 7 5 o 105.05 113.50
-9 7 5 o 1486.64 1451.82
-8 7 5 o 0.13 0.41
-7 7 5 o 75.89 66.25
-6 7 5 o 152.91 155.76
-5 7 5 o 1008.92 986.30
-4 7 5 o -2.26 0.31
-3 7 5 o 66.84 74.03
-2 7 5 o 349.39 338.27
-1 7 5 o 29.60 20.17
0 7 5 o 7.58 7.67
1 7 5 o 32.26 31.34
2 7 5 o 193.82 193.34
3 7 5 o 355.69 358.24
4 7 5 o 376.97 388.73
5 7 5 o 135.35 141.73
6 7 5 o 76.80 70.05
7 7 5 o 46.01 42.06
8 7 5 o 50.11 53.17
9 7 5 o 17.90 26.99
-13 8 5 o 21.67 36.47
-12 8 5 o 54.33 50.08
-11 8 5 o 37.78 30.79
-10 8 5 o 28.50 32.57
-9 8 5 o 197.07 210.24
-8 8 5 o 1862.90 1887.76
-7 8 5 o 61.83 68.95
-6 8 5 o 243.51 243.34
-5 8 5 o -1.39 0.04
-4 8 5 o 504.52 476.31
-3 8 5 o 109.60 130.88
-2 8 5 o 93.96 99.62
-1 8 5 o 47.26 48.28
0 8 5 o 751.28 724.89
1 8 5 o 1011.84 942.31
2 8 5 o 655.61 679.33
3 8 5 o 2.82 0.42
4 8 5 o 93.94 99.47
5 8 5 o 101.02 104.20
6 8 5 o 16.53 20.76
7 8 5 o 59.08 69.21
8 8 5 o -2.91 0.84
9 8 5 o 48.47 31.11
-13 9 5 o -5.90 0.93
-12 9 5 o 74.34 76.20
-11 9 5 o 28.89 34.24
-10 9 5 o 25.02 16.07
-9 9 5 o 1.73 0.02
-8 9 5 o 37.71 31.54
-7 9 5 o 9.58 6.27
-6 9 5 o 20.78 27.44
-5 9 5 o 4.29 2.08
-4 9 5 o 197.50 191.09
-3 9 5 o 10.52 7.59
-2 9 5 o 485.69 500.05
-1 9 5 o 21.50 20.91
0 9 5 o 7.98 11.69
1 9 5 o 1610.87 1600.66
2 9 5 o 37.67 37.67
3 9 5 o 80.64 90.48
4 9 5 o 28.01 32.28
5 9 5 o 3.81 1.43
6 9 5 o 1.76 2.10
7 9 5 o 38.33 22.40
8 9 5 o 35.18 29.03
9 9 5 o -4.73 19.44
-12 10 5 o 26.09 24.04
-11 10 5 o 44.12 46.75
-10 10 5 o 72.26 77.74
-9 10 5 o 80.19 98.63
-8 10 5 o 73.77 69.48
-7 10 5 o 145.49 138.23
-6 10 5 o 256.18 234.67
-5 10 5 o 1.34 0.23
-4 10 5 o 165.00 186.55
-3 10 5 o 35.31 47.81
-2 10 5 o 79.29 92.11
-1 10 5 o 127.47 119.98
0 10 5 o 906.20 896.44
1 10 5 o 37.81 38.70
2 10 5 o 68.64 81.84
3 10 5 o 88.72 95.85
4 10 5 o -3.51 0.05
5 10 5 o 0.65 3.06
6 10 5 o -3.95 0.21
7 10 5 o -3.42 5.57
8 10 5 o 137.52 117.37
-12 11 5 o -3.98 4.87
-11 11 5 o 5.52 2.94
-10 11 5 o 24.11 23.11
-9 11 5 o 309.19 302.41
-8 11 5 o 15.81 19.70
-7 11 5 o 179.55 196.42
-6 11 5 o 0.29 0.65
-5 11 5 o 177.63 167.22
-4 11 5 o 47.70 49.91
-3 11 5 o 358.77 355.83
-2 11 5 o 338.16 339.96
-1 11 5 o 149.74 145.89
0 11 5 o 7.24 12.34
1 11 5 o 201.05 188.63
2 11 5 o 180.77 196.56
3 11 5 o 113.62 123.46
4 11 5 o 26.10 31.34
5 11 5 o 28.20 21.86
6 11 5 o 67.82 69.04
7 11 5 o 0.87 8.71
8 11 5 o 48.51 43.96
-11 12 5 o 7.06 6.06
-10 12 5 o 32.67 36.57
-9 12 5 o 75.20 81.57
-8 12 5 o 20.62 28.87
-7 12 5 o 3.38 0.12
-6 12 5 o 110.52 109.75
-5 12 5 o 53.25 56.42
-4 12 5 o 2.52 11.35
-3 12 5 o 689.46 672.30
-2 12 5 o 28.41 20.39
-1 12 5 o 64.73 72.04
0 12 5 o 68.01 58.76
1 12 5 o 13.54 9.19
2 12 5 o -8.65 0.02
3 12 5 o 188.31 188.87
4 12 5 o 25.77 18.49
5 12 5 o 37.81 34.60
6 12 5 o 2.73 10.45
7 12 5 o 37.65 27.39
-11 13 5 o 6.85 0.53
-10 13 5 o -5.69 0.07
-9 13 5 o 87.39 80.83
-8 13 5 o -1.08 0.10
-7 13 5 o 19.34 26.54
-6 13 5 o 131.07 129.82
-5 13 5 o 123.52 112.44
-4 13 5 o 3.21 1.87
-3 13 5 o 6.94 1.23
-2 13 5 o 18.22 15.27
-1 13 5 o 148.05 132.57
0 13 5 o 4.15 12.87
1 13 5 o 63.37 71.24
2 13 5 o 149.13 148.17
3 13 5 o 0.55 0.02
4 13 5 o 15.49 0.01
5 13 5 o 15.45 7.97
6 13 5 o 5.45 0.00
7 13 5 o 19.47 2.09
-10 14 5 o 63.91 54.93
-9 14 5 o 5.85 3.50
-8 14 5 o 131.73 115.15
-7 14 5 o 42.69 44.02
-6 14 5 o 26.10 23.87
-5 14 5 o 67.11 63.24
-4 14 5 o 236.84 250.62
-3 14 5 o 67.21 63.43
-2 14 5 o 9.02 0.92
-1 14 5 o 345.78 331.26
0 14 5 o 45.59 43.98
1 14 5 o 157.27 162.20
2 14 5 o 91.51 68.92
3 14 5 o 94.82 92.50
4 14 5 o 7.98 0.44
5 14 5 o 28.43 22.19
6 14 5 o 9.98 5.78
-9 15 5 o 8.02 5.23
-8 15 5 o 50.77 60.26
-7 15 5 o 17.01 14.19
-6 15 5 o 3.20 1.03
-5 15 5 o 17.55 23.30
-4 15 5 o 6.87 5.03
-3 15 5 o -2.26 3.79
-2 15 5 o 68.78 74.38
-1 15 5 o 39.60 31.59
0 15 5 o -2.40 5.24
1 15 5 o 45.11 34.39
2 15 5 o 38.06 29.51
3 15 5 o 8.53 4.39
4 15 5 o -4.80 3.81
5 15 5 o -6.41 2.67
-8 16 5 o 5.24 1.61
-7 16 5 o 88.58 85.77
-6 16 5 o 0.96 3.46
-5 16 5 o 9.95 13.43
-4 16 5 o -2.27 1.97
-3 16 5 o 14.71 8.71
-2 16 5 o 20.87 26.13
-1 16 5 o 9.05 9.61
0 16 5 o 66.57 45.30
1 16 5 o 21.16 14.89
2 16 5 o 13.41 13.08
3 16 5 o 55.87 55.93
4 16 5 o 22.06 7.07
-7 17 5 o 11.10 14.42
-6 17 5 o 40.71 32.66
-5 17 5 o 25.60 10.30
-4 17 5 o 4.29 2.89
-3 17 5 o 16.15 7.42
-2 17 5 o -7.24 0.29
-1 17 5 o -6.46 0.02
0 17 5 o 3.97 6.05
1 17 5 o -6.89 1.97
2 17 5 o 79.84 76.91
3 17 5 o 5.75 2.26
-5 18 5 o -11.37 4.10
-4 18 5 o 32.60 30.86
-3 18 5 o 19.44 14.27
-2 18 5 o 12.54 3.31
-1 18 5 o 47.83 32.17
0 18 5 o 29.90 1.65
1 18 5 o 10.76 1.51
-14 0 6 o -7.34 1.73
-13 0 6 o 416.77 390.51
-12 0 6 o 33.59 13.33
-11 0 6 o 19.56 20.80
-10 0 6 o 25.27 15.27
-9 0 6 o 93.50 115.05
-8 0 6 o 150.12 157.99
-7 0 6 o 1210.12 1261.02
-6 0 6 o 506.93 540.45
-5 0 6 o 278.36 306.18
-4 0 6 o 1815.87 1892.29
-3 0 6 o 926.28 913.53
-2 0 6 o 532.49 545.12
0 0 6 o 552.60 643.61
1 0 6 o 1219.15 1219.07
2 0 6 o 2384.51 2631.28
3 0 6 o 655.52 716.77
4 0 6 o 3045.71 3057.71
5 0 6 o 2.34 4.48
6 0 6 o 4.48 7.80
7 0 6 o 25.77 24.94
8 0 6 o 32.93 45.52
9 0 6 o 76.84 62.10
-14 1 6 o -7.17 4.24
-13 1 6 o 36.07 39.17
-12 1 6 o 49.38 38.29
-11 1 6 o 7.68 3.08
-10 1 6 o 0.94 1.16
-9 1 6 o 0.90 4.28
-8 1 6 o 616.71 609.15
-7 1 6 o 43.46 42.26
-6 1 6 o -1.34 1.64
-5 1 6 o 18.81 18.47
-4 1 6 o 31.20 34.97
-3 1 6 o 144.48 174.83
-2 1 6 o 206.55 203.35
-1 1 6 o 507.12 557.60
0 1 6 o 13.29 11.64
1 1 6 o 887.35 917.51
2 1 6 o 606.91 620.95
3 1 6 o 84.41 91.46
4 1 6 o -0.98 0.75
5 1 6 o 49.38 53.21
6 1 6 o 85.96 85.79
7 1 6 o 89.01 101.89
8 1 6 o 47.05 44.87
9 1 6 o -6.15 1.43
-14 2 6 o 2.28 3.00
-13 2 6 o 0.43 2.18
-12 2 6 o -7.61 4.57
-11 2 6 o 1.63 4.48
-10 2 6 o 2.06 8.81
-9 2 6 o 32.57 38.12
-8 2 6 o 68.26 63.59
-7 2 6 o 311.09 241.43
-6 2 6 o 579.53 575.83
-5 2 6 o 47.93 50.14
-4 2 6 o 20.68 12.84
-3 2 6 o 152.84 166.07
-2 2 6 o 992.87 978.97
-1 2 6 o 2.71 1.95
0 2 6 o 510.99 534.47
1 2 6 o 180.64 198.40
2 2 6 o 413.51 428.09
3 2 6 o 133.24 152.21
4 2 6 o 230.82 225.65
5 2 6 o 31.04 31.76
6 2 6 o 192.44 185.24
7 2 6 o 9.63 1.64
8 2 6 o 2.02 0.69
9 2 6 o 8.57 1.32
-14 3 6 o 61.00 56.34
-13 3 6 o 5.84 9.59
-12 3 6 o 236.33 245.75
-11 3 6 o 79.26 82.94
-10 3 6 o -4.25 0.11
-9 3 6 o 46.07 62.61
-8 3 6 o 241.84 247.92
-7 3 6 o 207.30 203.49
-6 3 6 o 1055.68 1051.34
-5 3 6 o 1087.69 1069.87
-4 3 6 o 978.76 890.27
-3 3 6 o 313.10 317.21
-2 3 6 o 92.21 93.35
-1 3 6 o 292.90 325.70
0 3 6 o 2.43 1.61
1 3 6 o 225.36 237.65
2 3 6 o 204.87 192.88
3 3 6 o 2548.67 2609.75
4 3 6 o 143.49 147.09
5 3 6 o 617.36 595.06
6 3 6 o 67.32 69.38
7 3 6 o 5.42 1.91
8 3 6 o 48.96 60.12
9 3 6 o 5.76 3.41
-14 4 6 o -1.30 0.78
-13 4 6 o 80.21 97.79
-12 4 6 o 8.51 8.55
-11 4 6 o -2.31 0.76
-10 4 6 o 51.47 61.09
-9 4 6 o 9.48 9.85
-8 4 6 o 8.21 4.69
-7 4 6 o 840.80 871.86
-6 4 6 o 3.08 2.53
-5 4 6 o 25.88 23.68
-4 4 6 o 36.00 40.29
-3 4 6 o 505.88 441.43
-2 4 6 o 2.82 8.60
-1 4 6 o 41.33 54.02
0 4 6 o 143.27 150.48
1 4 6 o 32.66 29.99
2 4 6 o 5.01 4.79
3 4 6 o 246.48 248.26
4 4 6 o 349.34 393.97
5 4 6 o 171.74 167.30
6 4 6 o 9.00 2.15
7 4 6 o 132.93 114.76
8 4 6 o 6.58 1.92
9 4 6 o 32.17 21.76
-13 5 6 o 6.53 13.04
-12 5 6 o 49.99 59.04
-11 5 6 o 29.08 21.97
-10 5 6 o 49.98 50.73
-9 5 6 o 8.21 7.26
-8 5 6 o 498.97 503.38
-7 5 6 o 7.93 9.52
-6 5 6 o 3.83 3.59
-5 5 6 o 268.33 255.54
-4 5 6 o 1064.73 1111.73
-3 5 6 o 743.26 841.95
-2 5 6 o 86.76 76.68
-1 5 6 o 391.84 408.39
0 5 6 o 205.64 199.06
1 5 6 o -3.03 0.87
2 5 6 o 87.62 87.94
3 5 6 o 66.04 70.29
4 5 6 o 6.63 6.08
5 5 6 o 6.26 6.18
6 5 6 o 68.50 71.05
7 5 6 o 43.76 43.83
8 5 6 o 38.11 46.05
9 5 6 o 8.41 0.10
-13 6 6 o 21.40 11.74
-12 6 6 o -2.35 2.95
-11 6 6 o 182.37 164.17
-10 6 6 o -4.34 0.25
-9 6 6 o 309.29 292.05
-8 6 6 o 311.51 305.59
-7 6 6 o 421.69 473.22
-6 6 6 o 295.32 284.52
-5 6 6 o 0.80 3.01
-4 6 6 o 91.35 96.31
-3 6 6 o 210.68 217.17
-2 6 6 o 591.32 637.32
-1 6 6 o -1.91 0.07
0 6 6 o 27.01 26.43
1 6 6 o 1226.21 1150.90
2 6 6 o 79.44 80.16
3 6 6 o -3.58 0.22
4 6 6 o 33.54 46.03
5 6 6 o 34.21 29.24
6 6 6 o 121.99 124.52
7 6 6 o 6.93 10.49
8 6 6 o 29.11 29.39
-13 7 6 o -5.80 6.73
-12 7 6 o 112.12 120.50
-11 7 6 o 4.91 4.16
-10 7 6 o 53.43 51.94
-9 7 6 o -5.08 4.36
-8 7 6 o 313.96 323.98
-7 7 6 o 170.15 160.14
-6 7 6 o 291.77 305.81
-5 7 6 o 12.11 11.77
-4 7 6 o 37.67 34.75
-3 7 6 o 320.89 332.40
-2 7 6 o 288.56 282.86
-1 7 6 o 2.47 1.97
0 7 6 o 6.49 8.85
1 7 6 o 0.07 1.10
2 7 6 o 486.47 486.74
3 7 6 o 413.19 412.53
4 7 6 o 17.15 19.31
5 7 6 o 67.66 56.68
6 7 6 o 110.43 103.85
7 7 6 o 9.95 14.89
8 7 6 o 15.70 2.45
-13 8 6 o 6.05 2.26
-12 8 6 o 5.57 0.60
-11 8 6 o 39.07 46.30
-10 8 6 o -4.82 0.45
-9 8 6 o -6.33 5.41
-8 8 6 o 64.04 69.25
-7 8 6 o 17.98 19.23
-6 8 6 o 3.70 0.26
-5 8 6 o 4.84 9.42
-4 8 6 o 2.61 0.87
-3 8 6 o 144.04 153.45
-2 8 6 o 85.62 113.52
-1 8 6 o -0.12 1.03
0 8 6 o 462.27 436.64
1 8 6 o 249.39 248.34
2 8 6 o 81.12 64.00
3 8 6 o 21.99 19.67
4 8 6 o 42.32 49.79
5 8 6 o 5.20 0.00
6 8 6 o -6.38 3.91
7 8 6 o 12.23 0.34
8 8 6 o -10.92 0.14
-12 9 6 o 11.35 9.03
-11 9 6 o 22.61 24.35
-10 9 6 o 127.15 103.65
-9 9 6 o 68.51 77.37
-8 9 6 o 424.82 410.53
-7 9 6 o 77.26 82.42
-6 9 6 o 95.74 98.48
-5 9 6 o 177.48 184.41
-4 9 6 o 28.41 26.21
-3 9 6 o -0.71 1.31
-2 9 6 o 39.35 39.52
-1 9 6 o 446.94 429.67
0 9 6 o 5.34 2.05
1 9 6 o 68.19 76.26
2 9 6 o 33.55 25.98
3 9 6 o 68.31 70.79
4 9 6 o 12.47 11.14
5 9 6 o 74.55 67.38
6 9 6 o 1.95 0.00
7 9 6 o 13.05 26.96
-12 10 6 o 0.53 13.22
-11 10 6 o 94.16 97.74
-10 10 6 o 15.90 20.31
-9 10 6 o 4.27 2.65
-8 10 6 o 10.53 4.19
-7 10 6 o 183.13 177.71
-6 10 6 o 132.76 141.03
-5 10 6 o 102.98 102.97
-4 10 6 o 491.33 501.04
-3 10 6 o 14.86 13.71
-2 10 6 o 486.74 514.84
-1 10 6 o 52.81 64.83
0 10 6 o 1.39 0.04
1 10 6 o 155.73 153.56
2 10 6 o 207.59 197.56
3 10 6 o 4.02 4.19
4 10 6 o 140.84 123.01
5 10 6 o 16.22 21.36
6 10 6 o 23.51 19.74
7 10 6 o 16.69 8.34
-11 11 6 o -5.49 0.07
-10 11 6 o -6.82 1.01
-9 11 6 o 5.60 1.36
-8 11 6 o 13.89 17.80
-7 11 6 o 21.38 29.94
-6 11 6 o -0.89 1.18
-5 11 6 o -1.02 0.67
-4 11 6 o 9.62 0.17
-3 11 6 o 14.50 11.75
-2 11 6 o 194.11 189.16
-1 11 6 o 288.78 275.02
0 11 6 o 26.60 17.84
1 11 6 o 6.81 9.30
2 11 6 o -6.07 2.32
3 11 6 o 12.96 14.10
4 11 6 o 2.04 0.74
5 11 6 o 80.95 82.69
6 11 6 o 34.49 26.86
7 11 6 o 5.79 8.20
-11 12 6 o 9.67 6.08
-10 12 6 o 1.73 4.05
-9 12 6 o 59.16 43.88
-8 12 6 o 7.57 8.80
-7 12 6 o 88.85 100.62
-6 12 6 o 265.21 310.56
-5 12 6 o 7.22 0.14
-4 12 6 o 23.65 25.91
-3 12 6 o 1.83 1.07
-2 12 6 o 254.10 247.78
-1 12 6 o 2.08 0.03
0 12 6 o 26.64 14.11
1 12 6 o 19.43 9.31
2 12 6 o 136.22 106.54
3 12 6 o 91.06 75.18
4 12 6 o 71.43 57.24
5 12 6 o 9.03 2.25
6 12 6 o -2.94 0.58
-10 13 6 o 18.76 14.01
-9 13 6 o -4.13 0.38
-8 13 6 o 33.05 36.33
-7 13 6 o 24.92 20.83
-6 13 6 o 195.88 182.18
-5 13 6 o 199.32 197.82
-4 13 6 o 63.76 53.57
-3 13 6 o 46.33 48.89
-2 13 6 o 72.50 68.85
-1 13 6 o 62.31 73.41
0 13 6 o -0.39 0.01
1 13 6 o 35.23 34.64
2 13 6 o 37.63 43.27
3 13 6 o 213.55 178.51
4 13 6 o 5.15 3.53
5 13 6 o 134.14 107.94
-8 14 6 o 2.02 1.42
-7 14 6 o 18.16 32.78
-6 14 6 o 14.29 10.16
-5 14 6 o 29.18 25.34
-4 14 6 o 15.40 11.18
-3 14 6 o 10.14 19.33
-2 14 6 o 35.76 33.55
-1 14 6 o 17.87 19.86
0 14 6 o 3.83 0.13
1 14 6 o 0.88 2.84
2 14 6 o 34.67 25.88
3 14 6 o 40.09 25.94
4 14 6 o -5.77 7.06
5 14 6 o 10.27 21.31
-8 15 6 o 32.08 25.86
-7 15 6 o 58.32 46.52
-6 15 6 o 39.52 17.29
-5 15 6 o 18.47 6.80
-4 15 6 o 25.88 14.01
-3 15 6 o 38.32 37.32
-2 15 6 o 15.22 9.17
-1 15 6 o 35.25 34.17
0 15 6 o 24.67 22.73
1 15 6 o 44.41 39.58
2 15 6 o 46.39 38.19
3 15 6 o 159.27 141.24
4 15 6 o 3.69 3.50
-7 16 6 o 57.14 68.25
-6 16 6 o 90.07 70.19
-5 16 6 o 39.88 36.76
-4 16 6 o 53.75 34.06
-3 16 6 o 6.85 2.69
-2 16 6 o 81.50 79.71
-1 16 6 o 23.86 16.27
0 16 6 o 28.36 21.82
1 16 6 o 22.96 25.40
2 16 6 o 30.54 36.63
-6 17 6 o 12.88 8.07
-5 17 6 o -10.68 0.03
-4 17 6 o 15.19 10.33
-3 17 6 o 23.59 2.25
-2 17 6 o -7.12 1.22
-1 17 6 o 6.30 17.11
0 17 6 o 0.50 0.14
1 17 6 o -0.48 13.18
-13 1 7 o 40.93 39.33
-12 1 7 o 2.03 0.82
-11 1 7 o -1.49 4.24
-10 1 7 o 20.61 20.66
-9 1 7 o 51.32 36.50
-8 1 7 o -2.41 0.17
-7 1 7 o 536.33 581.32
-6 1 7 o 536.49 522.70
-5 1 7 o 92.48 80.91
-4 1 7 o 845.30 850.23
-3 1 7 o 9.83 3.06
-2 1 7 o 300.21 331.52
-1 1 7 o 2.52 0.48
1 1 7 o 10.91 15.47
2 1 7 o 4.44 1.98
4 1 7 o 409.22 397.71
5 1 7 o 71.00 80.31
6 1 7 o 39.12 20.55
7 1 7 o 57.51 57.19
8 1 7 o 20.71 31.41
-13 2 7 o 17.13 6.85
-12 2 7 o 29.44 26.48
-11 2 7 o 3.37 5.05
-10 2 7 o 44.68 44.39
-9 2 7 o 168.99 156.63
-8 2 7 o 4.38 4.56
-7 2 7 o 93.11 105.84
-6 2 7 o 1135.42 1179.34
-5 2 7 o 1432.15 1428.44
-4 2 7 o 393.44 384.30
-3 2 7 o 900.04 831.24
-2 2 7 o -2.54 0.56
-1 2 7 o 710.73 682.48
0 2 7 o 70.92 87.49
1 2 7 o 175.05 181.29
2 2 7 o 59.20 55.52
3 2 7 o 212.58 221.63
4 2 7 o 25.18 30.73
5 2 7 o 176.90 215.50
6 2 7 o 316.70 313.32
7 2 7 o 6.91 0.13
8 2 7 o 87.31 69.74
-13 3 7 o 28.48 28.53
-12 3 7 o -1.40 1.36
-11 3 7 o -1.33 1.38
-10 3 7 o 12.28 11.65
-9 3 7 o 18.57 17.46
-8 3 7 o 0.39 0.12
-7 3 7 o 688.45 647.22
-6 3 7 o 215.45 225.63
-5 3 7 o 8.28 4.57
-4 3 7 o 121.53 114.64
-3 3 7 o 99.00 94.28
-2 3 7 o 7.10 3.77
-1 3 7 o 45.23 44.32
0 3 7 o 105.01 118.76
1 3 7 o 84.03 83.79
2 3 7 o 94.78 103.07
3 3 7 o 131.78 121.14
4 3 7 o 14.96 7.99
5 3 7 o -1.15 4.49
6 3 7 o 50.57 45.23
7 3 7 o 52.83 57.93
8 3 7 o 8.83 16.15
-13 4 7 o 40.21 29.06
-12 4 7 o 11.19 7.55
-11 4 7 o 18.49 13.71
-10 4 7 o -2.39 0.28
-9 4 7 o -3.90 0.30
-8 4 7 o 174.61 168.48
-7 4 7 o 34.92 32.28
-6 4 7 o 628.98 586.96
-5 4 7 o 984.28 904.60
-4 4 7 o 2.76 19.33
-3 4 7 o 31.06 31.99
-2 4 7 o 124.68 113.64
-1 4 7 o 268.64 260.16
0 4 7 o -0.43 10.10
1 4 7 o 102.80 117.08
2 4 7 o 5.78 8.49
3 4 7 o 147.36 137.91
4 4 7 o 0.61 1.21
5 4 7 o 212.54 186.57
6 4 7 o 45.81 41.01
7 4 7 o 6.55 4.27
8 4 7 o 25.91 37.69
-13 5 7 o 1.64 14.93
-12 5 7 o 30.83 24.04
-11 5 7 o 89.87 80.49
-10 5 7 o 365.07 322.04
-9 5 7 o 37.17 22.79
-8 5 7 o 39.87 46.22
-7 5 7 o 440.14 398.70
-6 5 7 o 94.23 100.27
-5 5 7 o 565.28 546.04
-4 5 7 o 778.31 835.39
-3 5 7 o 84.29 69.90
-2 5 7 o 178.49 165.91
-1 5 7 o 266.66 282.17
0 5 7 o 73.49 75.36
1 5 7 o 171.69 185.92
2 5 7 o -0.38 0.38
3 5 7 o 4.72 4.74
4 5 7 o 726.13 713.58
5 5 7 o 301.98 297.92
6 5 7 o 22.53 33.47
7 5 7 o 73.14 79.87
-13 6 7 o 3.56 0.82
-12 6 7 o -4.98 0.59
-11 6 7 o 1.20 1.60
-10 6 7 o 31.98 44.82
-9 6 7 o 54.15 53.49
-8 6 7 o 56.73 62.24
-7 6 7 o 3.23 2.32
-6 6 7 o 158.52 137.43
-5 6 7 o 350.91 340.94
-4 6 7 o 22.99 19.75
-3 6 7 o 49.58 62.66
-2 6 7 o 133.04 140.03
-1 6 7 o 8.29 10.98
0 6 7 o 123.84 125.34
1 6 7 o 458.95 478.34
2 6 7 o 77.82 85.55
3 6 7 o -1.16 1.94
4 6 7 o 2.22 4.11
5 6 7 o -2.95 0.13
6 6 7 o 14.62 7.51
7 6 7 o 1.97 17.72
-12 7 7 o 136.66 121.62
-11 7 7 o 13.96 17.77
-10 7 7 o 107.43 104.94
-9 7 7 o 29.58 34.29
-8 7 7 o 23.89 18.93
-7 7 7 o 30.29 22.72
-6 7 7 o 138.80 163.31
-5 7 7 o 128.71 116.79
-4 7 7 o 430.63 408.07
-3 7 7 o 201.56 215.22
-2 7 7 o 171.63 193.06
-1 7 7 o 102.89 99.56
0 7 7 o 0.58 0.03
1 7 7 o 74.27 83.17
2 7 7 o 17.46 22.96
3 7 7 o 1.03 0.25
4 7 7 o 65.66 62.32
5 7 7 o 50.08 48.38
6 7 7 o 77.93 82.66
7 7 7 o 15.91 0.24
-12 8 7 o 129.17 120.91
-11 8 7 o 82.61 73.92
-10 8 7 o 50.15 52.30
-9 8 7 o 22.26 24.15
-8 8 7 o 8.97 14.20
-7 8 7 o 91.03 61.89
-6 8 7 o 50.91 52.42
-5 8 7 o 380.62 382.79
-4 8 7 o 98.32 111.09
-3 8 7 o 1016.84 1014.58
-2 8 7 o 21.57 25.41
-1 8 7 o 509.47 498.35
0 8 7 o 2.93 3.56
1 8 7 o 124.36 139.52
2 8 7 o 1.59 2.39
3 8 7 o 111.03 107.90
4 8 7 o 30.89 30.13
5 8 7 o 193.46 193.40
6 8 7 o 303.66 274.28
-12 9 7 o -6.29 0.11
-11 9 7 o 28.34 26.86
-10 9 7 o 5.97 2.03
-9 9 7 o -0.90 2.54
-8 9 7 o 46.53 72.44
-7 9 7 o 3.82 12.41
-6 9 7 o 21.62 17.95
-5 9 7 o 0.87 0.26
-4 9 7 o 448.62 446.54
-3 9 7 o 3.00 0.83
-2 9 7 o 88.27 98.15
-1 9 7 o 1.55 7.23
0 9 7 o 373.12 387.51
1 9 7 o -0.70 6.18
2 9 7 o 13.38 12.57
3 9 7 o 4.03 6.83
4 9 7 o 29.42 28.01
5 9 7 o 29.40 15.98
6 9 7 o 40.10 26.81
-11 10 7 o 114.64 115.72
-10 10 7 o -9.23 0.19
-9 10 7 o 74.51 61.05
-8 10 7 o -7.01 0.04
-7 10 7 o 23.21 18.52
-6 10 7 o 51.85 56.74
-5 10 7 o 289.75 289.39
-4 10 7 o 9.81 3.24
-3 10 7 o -1.33 0.21
-2 10 7 o -4.02 0.76
-1 10 7 o -2.98 7.04
0 10 7 o 62.95 47.57
1 10 7 o 47.27 48.22
2 10 7 o 46.91 48.80
3 10 7 o -1.72 2.68
4 10 7 o -3.56 0.22
5 10 7 o 40.12 40.51
6 10 7 o 53.76 45.91
-11 11 7 o 14.66 10.85
-10 11 7 o 68.39 45.10
-9 11 7 o 22.06 19.08
-8 11 7 o 43.18 33.18
-7 11 7 o 11.45 17.20
-6 11 7 o 121.97 104.26
-5 11 7 o 16.09 17.11
-4 11 7 o 403.94 390.52
-3 11 7 o 49.39 62.30
-2 11 7 o 139.90 142.36
-1 11 7 o 36.15 33.90
0 11 7 o 106.32 105.08
1 11 7 o 6.97 4.13
2 11 7 o 35.17 37.78
3 11 7 o 7.00 2.24
4 11 7 o 192.07 181.92
5 11 7 o 126.10 98.25
-10 12 7 o -9.93 0.04
-9 12 7 o -9.13 1.59
-8 12 7 o 66.96 54.52
-7 12 7 o -2.80 5.26
-6 12 7 o 22.71 10.33
-5 12 7 o 47.79 46.57
-4 12 7 o -4.36 0.43
-3 12 7 o 2.00 4.79
-2 12 7 o 10.97 11.81
-1 12 7 o 27.92 29.65
0 12 7 o 54.46 67.71
1 12 7 o 11.46 10.56
2 12 7 o 6.99 13.46
3 12 7 o 4.61 10.17
4 12 7 o 8.72 4.08
-9 13 7 o 40.69 32.18
-8 13 7 o 30.89 22.28
-7 13 7 o 1.44 0.71
-6 13 7 o 74.17 72.24
-5 13 7 o 0.55 2.48
-4 13 7 o 10.94 7.40
-3 13 7 o 10.11 3.76
-2 13 7 o 86.33 84.59
-1 13 7 o -1.56 1.72
0 13 7 o 4.09 0.77
1 13 7 o 4.81 11.30
2 13 7 o -0.38 2.80
3 13 7 o 10.39 8.41
4 13 7 o 22.07 36.18
-8 14 7 o -9.67 2.63
-7 14 7 o 48.46 40.78
-6 14 7 o 23.40 39.61
-5 14 7 o 58.93 62.13
-4 14 7 o 47.93 59.89
-3 14 7 o 74.10 58.55
-2 14 7 o 1.95 0.33
-1 14 7 o 58.43 50.27
0 14 7 o 9.83 1.53
1 14 7 o 37.75 30.96
2 14 7 o 4.47 1.45
3 14 7 o 66.19 52.98
-7 15 7 o 41.92 34.48
-6 15 7 o 22.50 0.70
-5 15 7 o 13.04 19.58
-4 15 7 o 3.81 0.53
-3 15 7 o 0.43 0.29
-2 15 7 o 42.26 36.11
-1 15 7 o 5.51 10.40
0 15 7 o 5.14 5.93
1 15 7 o 10.33 0.08
-5 16 7 o 25.48 13.89
-4 16 7 o -7.65 3.85
-3 16 7 o 16.03 1.86
-2 16 7 o 3.46 6.24
-1 16 7 o 1.68 1.38
0 16 7 o 8.71 2.46
-13 0 8 o 143.54 127.46
-12 0 8 o 79.19 61.06
-11 0 8 o -3.26 2.94
-10 0 8 o 10.99 0.11
-9 0 8 o 29.98 25.68
-8 0 8 o 464.27 441.09
4 0 8 o 121.06 105.42
5 0 8 o 17.94 4.48
6 0 8 o -9.96 5.01
-13 1 8 o 2.09 0.05
-12 1 8 o 18.14 17.73
-11 1 8 o 35.30 36.82
-10 1 8 o -2.81 0.00
-9 1 8 o 32.23 32.07
-8 1 8 o 17.90 19.13
-7 1 8 o 0.35 0.27
3 1 8 o 3.94 7.32
4 1 8 o 26.07 22.18
5 1 8 o 29.64 23.47
6 1 8 o -4.98 2.04
-13 2 8 o 4.59 2.61
-12 2 8 o 25.08 12.03
-11 2 8 o 10.48 3.26
-10 2 8 o 39.89 32.81
-9 2 8 o 5.64 15.95
-8 2 8 o 19.43 11.06
-7 2 8 o 0.22 6.21
-6 2 8 o 8.39 1.64
-5 2 8 o -4.52 0.24
-4 2 8 o 218.39 218.23
-3 2 8 o 246.72 281.90
-2 2 8 o 36.38 16.62
-1 2 8 o 159.06 167.49
0 2 8 o 15.75 10.91
2 2 8 o 142.41 173.82
3 2 8 o 32.51 39.59
4 2 8 o 26.53 26.81
5 2 8 o 6.59 9.64
6 2 8 o -3.03 0.73
-13 3 8 o 82.43 77.36
-12 3 8 o 12.20 17.41
-11 3 8 o 56.75 57.62
-10 3 8 o 23.49 18.47
-9 3 8 o 384.66 363.42
-8 3 8 o 42.64 42.68
-7 3 8 o 30.55 24.58
-6 3 8 o 35.93 37.44
-5 3 8 o 101.78 104.10
-4 3 8 o 15.30 15.56
-3 3 8 o 351.79 390.62
-2 3 8 o 474.67 491.52
-1 3 8 o 38.27 28.12
0 3 8 o 462.67 444.05
1 3 8 o 251.54 239.66
2 3 8 o 103.72 105.57
3 3 8 o 22.35 1.96
4 3 8 o 54.84 59.43
5 3 8 o 169.55 140.71
6 3 8 o 124.70 119.43
-12 4 8 o 49.55 49.73
-11 4 8 o 11.38 7.18
-10 4 8 o 92.56 73.77
-9 4 8 o 66.39 74.31
-8 4 8 o 244.24 245.11
-7 4 8 o 43.07 54.76
-6 4 8 o 108.69 88.61
-5 4 8 o 358.46 327.52
-4 4 8 o 666.35 600.20
-3 4 8 o 68.11 91.06
-2 4 8 o 126.09 124.76
-1 4 8 o 107.39 101.42
0 4 8 o 132.98 105.82
1 4 8 o 19.88 22.05
2 4 8 o 10.98 6.09
3 4 8 o 12.40 3.99
4 4 8 o 76.21 72.62
5 4 8 o 0.10 10.41
6 4 8 o 6.79 9.22
-12 5 8 o 3.87 1.88
-11 5 8 o 70.65 54.94
-10 5 8 o -5.28 3.82
-9 5 8 o 89.08 102.49
-8 5 8 o 143.04 144.94
-7 5 8 o 4.18 0.44
-6 5 8 o 149.74 135.22
-5 5 8 o 97.33 88.73
-4 5 8 o 17.45 20.79
-3 5 8 o 14.66 8.71
-2 5 8 o 33.51 21.07
-1 5 8 o 2.68 1.35
0 5 8 o 42.53 42.63
1 5 8 o 65.40 57.71
2 5 8 o 6.27 21.42
3 5 8 o 4.67 5.19
4 5 8 o 22.13 18.08
5 5 8 o 182.99 178.74
6 5 8 o -12.23 0.42
-12 6 8 o 124.46 141.23
-11 6 8 o 51.68 56.67
-10 6 8 o 188.60 171.81
-9 6 8 o 18.28 21.81
-8 6 8 o 9.18 3.48
-7 6 8 o 33.41 35.55
-6 6 8 o 98.54 82.51
-5 6 8 o 14.38 8.54
-4 6 8 o 992.26 1009.26
-3 6 8 o 11.64 18.26
-2 6 8 o 214.24 206.34
-1 6 8 o 1.98 8.59
0 6 8 o 96.11 95.56
1 6 8 o 15.79 12.18
2 6 8 o 67.61 67.07
3 6 8 o 49.17 34.14
4 6 8 o 6.28 6.19
5 6 8 o 28.57 28.65
6 6 8 o 166.74 145.00
-12 7 8 o 41.66 44.28
-11 7 8 o 54.02 50.09
-10 7 8 o 104.89 104.37
-9 7 8 o 132.21 121.62
-8 7 8 o 8.97 0.07
-7 7 8 o 104.47 107.73
-6 7 8 o 35.26 37.24
-5 7 8 o 483.29 468.98
-4 7 8 o 84.65 97.99
-3 7 8 o 258.35 261.59
-2 7 8 o 132.99 129.89
-1 7 8 o 298.79 282.73
0 7 8 o 2.80 0.35
1 7 8 o 3.56 0.13
2 7 8 o 78.63 81.57
3 7 8 o 2.09 3.90
4 7 8 o 37.39 23.49
5 7 8 o 149.27 145.54
-11 8 8 o 17.75 15.23
-10 8 8 o -8.97 4.12
-9 8 8 o 6.22 8.19
-8 8 8 o -0.56 0.39
-7 8 8 o 6.30 5.71
-6 8 8 o 6.06 13.61
-5 8 8 o 24.58 10.35
-4 8 8 o 1.27 6.90
-3 8 8 o 19.53 12.74
-2 8 8 o 132.59 127.11
-1 8 8 o 3.98 13.36
0 8 8 o 0.74 3.79
1 8 8 o -1.08 0.07
2 8 8 o 14.28 0.59
3 8 8 o 5.33 5.02
4 8 8 o 2.59 5.17
5 8 8 o 2.94 0.06
-11 9 8 o 147.53 142.38
-10 9 8 o 19.87 0.57
-9 9 8 o 34.63 39.61
-8 9 8 o 5.58 9.78
-7 9 8 o 38.62 31.93
-6 9 8 o 19.27 31.04
-5 9 8 o 95.34 94.04
-4 9 8 o 13.33 0.32
-3 9 8 o 436.41 433.66
-2 9 8 o -5.70 0.07
-1 9 8 o -2.29 1.00
0 9 8 o -0.36 4.31
1 9 8 o 97.45 89.27
2 9 8 o 27.21 22.94
3 9 8 o 97.72 87.71
4 9 8 o 18.22 12.41
-10 10 8 o 139.51 111.36
-9 10 8 o 5.60 4.59
-8 10 8 o 26.48 0.92
-7 10 8 o 12.77 11.93
-6 10 8 o 41.99 42.12
-5 10 8 o -0.02 7.89
-4 10 8 o 175.35 211.92
-3 10 8 o 11.60 11.18
-2 10 8 o 64.67 61.77
-1 10 8 o 11.05 4.71
0 10 8 o 75.55 57.23
1 10 8 o 10.16 9.93
2 10 8 o 42.49 28.24
3 10 8 o 11.82 9.10
4 10 8 o 57.36 36.63
-9 11 8 o 1.72 0.36
-8 11 8 o 17.66 4.99
-7 11 8 o 20.62 14.12
-6 11 8 o -8.48 8.83
-5 11 8 o 65.47 62.97
-4 11 8 o 27.72 29.05
-3 11 8 o 10.58 10.41
-2 11 8 o 2.79 0.48
-1 11 8 o 0.03 4.49
0 11 8 o -0.47 2.34
1 11 8 o 40.34 41.18
2 11 8 o 2.73 0.03
3 11 8 o 6.00 0.47
-9 12 8 o 11.47 10.91
-8 12 8 o 24.40 25.59
-7 12 8 o 7.09 0.81
-6 12 8 o -4.39 4.01
-5 12 8 o 20.95 28.38
-4 12 8 o 60.36 63.70
-3 12 8 o 56.93 62.83
-2 12 8 o 112.85 118.17
-1 12 8 o 20.12 19.26
0 12 8 o 76.43 64.05
1 12 8 o 4.35 4.52
2 12 8 o 149.91 134.55
-8 13 8 o 12.19 0.01
-7 13 8 o -0.80 7.56
-6 13 8 o -5.89 2.52
-5 13 8 o 78.35 66.13
-4 13 8 o 16.43 26.64
-3 13 8 o 21.89 36.42
-2 13 8 o 2.53 7.98
-1 13 8 o 66.18 53.75
0 13 8 o 15.94 17.09
1 13 8 o 11.13 18.11
-6 14 8 o 10.66 0.65
-5 14 8 o 2.27 0.04
-4 14 8 o 4.46 3.69
-3 14 8 o -0.20 0.49
-2 14 8 o 6.60 12.59
-1 14 8 o 21.99 13.43
0 14 8 o 35.69 31.18
3 1 9 o 129.23 139.92
4 1 9 o -8.26 0.46
5 1 9 o 82.05 73.16
2 2 9 o 145.70 122.38
3 2 9 o 41.08 14.95
4 2 9 o -1.24 7.25
-6 3 9 o 15.40 11.22
-5 3 9 o 46.81 39.60
-4 3 9 o 10.64 17.34
-3 3 9 o -3.83 0.53
-2 3 9 o 5.63 0.93
-1 3 9 o 172.78 176.81
1 3 9 o 93.50 86.47
2 3 9 o -10.10 0.08
3 3 9 o 34.18 28.49
4 3 9 o -8.59 0.00
-8 4 9 o 89.03 91.77
-7 4 9 o 34.33 30.77
-6 4 9 o 60.68 58.56
-5 4 9 o 83.80 84.36
-4 4 9 o 58.06 34.75
-3 4 9 o 323.26 347.36
-2 4 9 o 220.91 230.33
-1 4 9 o 164.31 145.68
0 4 9 o 98.40 110.81
1 4 9 o -2.37 5.79
2 4 9 o 12.99 6.75
3 4 9 o -9.25 2.77
4 4 9 o 117.73 90.33
-9 5 9 o -9.00 0.49
-8 5 9 o 149.73 131.95
-7 5 9 o 19.79 4.92
-6 5 9 o 83.57 96.66
-5 5 9 o -7.38 0.50
-4 5 9 o 56.29 55.77
-3 5 9 o 17.38 16.17
-2 5 9 o 51.50 41.30
-1 5 9 o 101.69 110.56
0 5 9 o 5.41 7.36
1 5 9 o 38.49 24.74
2 5 9 o 3.14 8.62
3 5 9 o 52.24 47.50
4 5 9 o -2.45 0.04
-10 6 9 o -9.19 0.04
-9 6 9 o 41.02 37.04
-8 6 9 o -3.63 8.93
-7 6 9 o -6.29 1.43
-6 6 9 o 26.74 12.35
-5 6 9 o -9.34 2.37
-4 6 9 o 2.62 0.14
-3 6 9 o 2.80 3.47
-2 6 9 o 156.58 161.65
-1 6 9 o -3.82 3.36
0 6 9 o 31.22 26.83
1 6 9 o 8.06 0.05
2 6 9 o 12.22 7.72
3 6 9 o 7.22 2.46
4 6 9 o 54.77 42.12
-10 7 9 o 26.95 25.43
-9 7 9 o 28.47 28.32
-8 7 9 o 8.98 10.49
-7 7 9 o 2.23 2.93
-6 7 9 o 6.05 1.36
-5 7 9 o 4.11 7.91
-4 7 9 o 161.96 169.29
-3 7 9 o 33.66 51.89
-2 7 9 o 96.08 74.70
-1 7 9 o 14.08 21.00
0 7 9 o 14.28 2.20
1 7 9 o 86.26 77.17
2 7 9 o 4.49 2.10
3 7 9 o 25.18 26.31
-10 8 9 o -12.53 0.63
-9 8 9 o 13.46 13.24
-8 8 9 o 34.89 26.43
-7 8 9 o 42.53 11.96
-6 8 9 o 35.42 30.27
-5 8 9 o 217.36 195.89
-4 8 9 o 23.02 26.12
-3 8 9 o 128.39 145.47
-2 8 9 o 15.24 21.40
-1 8 9 o 8.17 14.00
0 8 9 o 34.34 23.40
1 8 9 o -5.66 4.11
2 8 9 o 10.16 13.70
3 8 9 o 4.00 8.29
-9 9 9 o 12.39 5.70
-8 9 9 o 44.05 30.35
-7 9 9 o 51.80 50.35
-6 9 9 o -3.11 0.81
-5 9 9 o 10.80 29.32
-4 9 9 o 134.94 138.36
-3 9 9 o 61.20 51.87
-2 9 9 o -0.70 2.30
-1 9 9 o 10.43 8.81
0 9 9 o 7.78 15.25
1 9 9 o 39.35 37.23
2 9 9 o 5.88 7.27
-9 10 9 o 18.70 5.52
-8 10 9 o 1.72 1.32
-7 10 9 o 36.44 26.46
-6 10 9 o 1.61 0.27
-5 10 9 o 19.62 20.77
-4 10 9 o 9.30 18.57
-3 10 9 o 110.91 95.03
-2 10 9 o 20.38 21.25
-1 10 9 o 146.12 139.50
0 10 9 o 27.17 12.98
1 10 9 o 18.06 0.29
-8 11 9 o 1.41 1.91
-7 11 9 o 10.35 27.90
-6 11 9 o 1.88 9.46
-5 11 9 o 9.66 3.06
-4 11 9 o 222.61 177.86
-3 11 9 o 112.51 102.78
-2 11 9 o 28.67 28.18
-1 11 9 o 13.35 21.06
0 11 9 o 22.81 19.68
-6 12 9 o 31.31 9.79
-5 12 9 o -10.00 1.67
-4 12 9 o -2.94 5.25
-3 12 9 o 68.73 50.35
-2 12 9 o 55.42 46.47
-1 12 9 o 15.22 10.03
2 1 10 o 25.60 12.33
1 2 10 o 56.81 41.23
2 2 10 o 2.29 4.69
0 3 10 o 51.88 51.55
1 3 10 o 8.97 1.04
2 3 10 o 104.88 83.64
-5 4 10 o 24.28 16.61
-4 4 10 o -7.70 1.11
-3 4 10 o 20.86 30.50
-2 4 10 o -8.57 0.28
-1 4 10 o 75.62 101.01
0 4 10 o 30.00 0.42
1 4 10 o -3.95 2.24
2 4 10 o -7.81 0.07
-8 5 10 o -6.50 5.22
-7 5 10 o 50.09 29.39
-6 5 10 o -1.66 3.19
-5 5 10 o 33.48 13.16
-4 5 10 o 7.38 7.59
-3 5 10 o 61.46 63.91
-2 5 10 o 3.41 4.37
-1 5 10 o 19.35 12.56
0 5 10 o 55.34 55.58
1 5 10 o 37.85 29.74
-9 6 10 o 70.09 55.75
-8 6 10 o 50.06 43.84
-7 6 10 o 103.03 87.64
-6 6 10 o 41.58 25.88
-5 6 10 o 32.17 39.24
-4 6 10 o 28.96 26.67
-3 6 10 o 63.68 59.05
-2 6 10 o 32.00 41.30
-1 6 10 o 47.02 36.97
0 6 10 o 9.14 23.38
1 6 10 o 100.95 101.56
-8 7 10 o -9.93 9.75
-7 7 10 o 36.59 20.28
-6 7 10 o 130.00 122.38
-5 7 10 o 9.84 9.35
-4 7 10 o 6.26 14.94
-3 7 10 o 13.48 9.52
-2 7 10 o 50.70 55.15
-1 7 10 o 25.97 20.25
0 7 10 o 35.68 38.41
-8 8 10 o 16.23 8.62
-7 8 10 o 1.13 0.00
-6 8 10 o 2.72 3.43
-5 8 10 o 36.81 28.50
-4 8 10 o 7.29 7.01
-3 8 10 o -1.69 0.00
-2 8 10 o 25.69 24.80
-1 8 10 o 22.93 12.55
0 8 10 o 13.43 10.67
-6 9 10 o 88.39 79.15
-5 9 10 o 1.53 6.33
-4 9 10 o -7.08 0.53
-3 9 10 o 62.03 57.37
-2 9 10 o 136.38 105.72
-1 9 10 o 0.41 1.92
-4 10 10 o 15.99 26.44
-2 4 11 o 31.39 19.70
-4 5 11 o -4.21 1.27
