#------------------------------------------------------------------------------
#$Date: 2016-08-07 10:44:50 +0300 (Sun, 07 Aug 2016) $
#$Revision: 185085 $
#$URL: file:///home/coder/svn-repositories/cod/cif/1/54/25/1542536.cif $
#------------------------------------------------------------------------------
#
# This file is available in the Crystallography Open Database (COD),
# http://www.crystallography.net/
#
# All data on this site have been placed in the public domain by the
# contributors.
#
data_1542536
loop_
_publ_author_name
'Comerford, James W.'
'Hart, Sam J.'
'North, Michael'
'Whitwood, Adrian C.'
_publ_section_title
;
 Homogeneous and silica-supported zinc complexes for the synthesis of
 propylene carbonate from propane-1,2-diol and carbon dioxide
;
_journal_issue                   13
_journal_name_full               'Catal. Sci. Technol.'
_journal_page_first              4824
_journal_paper_doi               10.1039/C6CY00134C
_journal_volume                  6
_journal_year                    2016
_chemical_formula_moiety         'C22 H16 F6 N4 O6 S2 Zn'
_chemical_formula_sum            'C22 H16 F6 N4 O6 S2 Zn'
_chemical_formula_weight         675.88
_chemical_name_systematic
;
 ?
;
_space_group_crystal_system      monoclinic
_space_group_IT_number           15
_space_group_name_Hall           '-C 2yc'
_space_group_name_H-M_alt        'C 1 2/c 1'
_symmetry_space_group_name_Hall  '-C 2yc'
_symmetry_space_group_name_H-M   'C 1 2/c 1'
_atom_sites_solution_hydrogens   geom
_atom_sites_solution_primary     iterative
_audit_creation_date             2016-01-18
_audit_creation_method
;
Olex2 1.2
(compiled 2015.09.30 svn.r3233 for OlexSys, GUI svn.r5103)
;
_audit_update_record
;
2016-01-18 deposited with the CCDC.
2016-02-23 downloaded from the CCDC.
;
_cell_angle_alpha                90
_cell_angle_beta                 101.5148(13)
_cell_angle_gamma                90
_cell_formula_units_Z            4
_cell_length_a                   9.92044(14)
_cell_length_b                   14.02733(18)
_cell_length_c                   18.6185(3)
_cell_measurement_reflns_used    8909
_cell_measurement_temperature    110.05(10)
_cell_measurement_theta_max      32.0180
_cell_measurement_theta_min      3.6490
_cell_volume                     2538.75(6)
_computing_cell_refinement
;
CrysAlisPro, Agilent Technologies,
Version 1.171.37.33 (release 27-03-2014 CrysAlis171 .NET)
(compiled Mar 27 2014,17:12:48)
;
_computing_data_collection
;
CrysAlisPro, Agilent Technologies,
Version 1.171.37.33 (release 27-03-2014 CrysAlis171 .NET)
(compiled Mar 27 2014,17:12:48)
;
_computing_data_reduction
;
CrysAlisPro, Agilent Technologies,
Version 1.171.37.33 (release 27-03-2014 CrysAlis171 .NET)
(compiled Mar 27 2014,17:12:48)
;
_computing_molecular_graphics    'Olex2 (Dolomanov et al., 2009)'
_computing_publication_material  'Olex2 (Dolomanov et al., 2009)'
_computing_structure_refinement  'ShelXL (Sheldrick, 2015)'
_computing_structure_solution
;
Superflip (Palatinus & Chapuis, 2007;Palatinus & van der Lee, 2008;
Palatinus et al., 2012)
;
_diffrn_ambient_environment      N~2~
_diffrn_ambient_temperature      110.05(10)
_diffrn_detector                 'CCD plate'
_diffrn_detector_area_resol_mean 16.1450
_diffrn_detector_type            Eos
_diffrn_measured_fraction_theta_full 0.997
_diffrn_measured_fraction_theta_max 0.934
_diffrn_measurement_details
;
  1 omega  -46.00   47.00   1.0000   11.0000
omega____ theta____ kappa____ phi______ frames
    -       24.8712  -37.0000  -90.0000 93

  2 omega  -47.00   63.00   1.0000   11.0000
omega____ theta____ kappa____ phi______ frames
    -       24.8712  -19.0000    0.0000 110

  3 omega   -4.00   94.00   1.0000   11.0000
omega____ theta____ kappa____ phi______ frames
    -       24.8712   77.0000 -120.0000 98

  4 omega   35.00   99.00   1.0000   11.0000
omega____ theta____ kappa____ phi______ frames
    -       24.8712  178.0000  -90.0000 64

  5 omega    6.00   59.00   1.0000   11.0000
omega____ theta____ kappa____ phi______ frames
    -       24.8712   57.0000    0.0000 53

  6 omega    6.00   93.00   1.0000   11.0000
omega____ theta____ kappa____ phi______ frames
    -       24.8712   57.0000   60.0000 87
;
_diffrn_measurement_device       'four-circle diffractometer'
_diffrn_measurement_device_type  'SuperNova, Dual, Cu at zero, Eos'
_diffrn_measurement_method       '\w scans'
_diffrn_orient_matrix_UB_11      -0.0647743000
_diffrn_orient_matrix_UB_12      -0.0206085000
_diffrn_orient_matrix_UB_13      0.0013114000
_diffrn_orient_matrix_UB_21      0.0293274000
_diffrn_orient_matrix_UB_22      -0.0230901000
_diffrn_orient_matrix_UB_23      0.0333469000
_diffrn_orient_matrix_UB_31      -0.0164052000
_diffrn_orient_matrix_UB_32      0.0399864000
_diffrn_orient_matrix_UB_33      0.0199405000
_diffrn_radiation_monochromator  mirror
_diffrn_radiation_probe          x-ray
_diffrn_radiation_type           MoK\a
_diffrn_radiation_wavelength     0.7107
_diffrn_reflns_av_R_equivalents  0.0256
_diffrn_reflns_av_unetI/netI     0.0232
_diffrn_reflns_Laue_measured_fraction_full 0.997
_diffrn_reflns_Laue_measured_fraction_max 0.934
_diffrn_reflns_limit_h_max       14
_diffrn_reflns_limit_h_min       -14
_diffrn_reflns_limit_k_max       20
_diffrn_reflns_limit_k_min       -19
_diffrn_reflns_limit_l_max       27
_diffrn_reflns_limit_l_min       -27
_diffrn_reflns_number            16102
_diffrn_reflns_point_group_measured_fraction_full 0.997
_diffrn_reflns_point_group_measured_fraction_max 0.934
_diffrn_reflns_theta_full        25.000
_diffrn_reflns_theta_max         32.163
_diffrn_reflns_theta_min         3.652
_diffrn_source                   'SuperNova (Mo) X-ray Source'
_exptl_absorpt_coefficient_mu    1.224
_exptl_absorpt_correction_T_max  0.871
_exptl_absorpt_correction_T_min  0.780
_exptl_absorpt_correction_type   analytical
_exptl_absorpt_process_details
;
CrysAlisPro, Agilent Technologies,
Version 1.171.37.33 (release 27-03-2014 CrysAlis171 .NET)
(compiled Mar 27 2014,17:12:48)
Analytical numeric absorption correction using a multifaceted crystal
            model based on expressions derived by R.C. Clark & J.S. Reid.
(Clark, R. C. & Reid, J. S. (1995). Acta Cryst. A51, 887-897)
Empirical absorption correction using spherical harmonics,
 implemented in SCALE3 ABSPACK scaling algorithm.
;
_exptl_crystal_colour            colourless
_exptl_crystal_density_diffrn    1.768
_exptl_crystal_description       plate
_exptl_crystal_F_000             1360
_exptl_crystal_recrystallization_method 'Re-crystallisation from solvent: '
_exptl_crystal_size_max          0.2637
_exptl_crystal_size_mid          0.2049
_exptl_crystal_size_min          0.1378
_refine_diff_density_max         0.412
_refine_diff_density_min         -0.404
_refine_diff_density_rms         0.064
_refine_ls_extinction_method     none
_refine_ls_goodness_of_fit_ref   1.054
_refine_ls_hydrogen_treatment    constr
_refine_ls_matrix_type           full
_refine_ls_number_parameters     186
_refine_ls_number_reflns         4183
_refine_ls_number_restraints     0
_refine_ls_restrained_S_all      1.054
_refine_ls_R_factor_all          0.0320
_refine_ls_R_factor_gt           0.0274
_refine_ls_shift/su_max          0.001
_refine_ls_shift/su_mean         0.000
_refine_ls_structure_factor_coef Fsqd
_refine_ls_weighting_details
'w=1/[\s^2^(Fo^2^)+(0.0276P)^2^+3.0392P] where P=(Fo^2^+2Fc^2^)/3'
_refine_ls_weighting_scheme      calc
_refine_ls_wR_factor_gt          0.0665
_refine_ls_wR_factor_ref         0.0691
_reflns_Friedel_coverage         0.000
_reflns_number_gt                3763
_reflns_number_total             4183
_reflns_threshold_expression     'I > 2\s(I)'
_iucr_refine_instructions_details
;
TITL mn1410 in C2/c
CELL 0.71 9.920442 14.027325 18.618492 90 101.5148 90
ZERR 4 0.000142 0.000184 0.000251 0 0.0013 0
LATT 7
SYMM -X,+Y,0.5-Z
 
SFAC C H F N O S Zn
UNIT 88 64 24 16 24 8 4
 
L.S. 10
PLAN  10
TEMP -163.15
fmap 2 53
MORE -1
BOND $H
CONF
acta 50
REM <HKL>D:/frames/mn1410/struct/olex2_mn1410/mn1410.hkl</HKL>
 
WGHT    0.027600    3.039200
FVAR       2.55396
C1    1    0.741974    0.192625    0.289055    11.00000    0.02210    0.02060 =
         0.01872   -0.00289    0.00324    0.00455
AFIX  43
H1    2    0.754335    0.203809    0.240461    11.00000   -1.20000
AFIX   0
C2    1    0.832697    0.132495    0.333804    11.00000    0.02295    0.01991 =
         0.02853   -0.00477   -0.00036    0.00589
AFIX  43
H2    2    0.906320    0.103042    0.316463    11.00000   -1.20000
AFIX   0
C3    1    0.813642    0.116382    0.404129    11.00000    0.02372    0.01516 =
         0.02764   -0.00037   -0.00784    0.00202
AFIX  43
H3    2    0.874746    0.075826    0.436164    11.00000   -1.20000
AFIX   0
C4    1    0.704891    0.159681    0.427770    11.00000    0.02442    0.01726 =
         0.01645    0.00253   -0.00396   -0.00225
AFIX  43
H4    2    0.689820    0.148760    0.475905    11.00000   -1.20000
AFIX   0
C5    1    0.618261    0.219317    0.379940    11.00000    0.01789    0.01387 =
         0.01330    0.00057   -0.00019   -0.00274
C6    1    0.500827    0.270521    0.400395    11.00000    0.01838    0.01521 =
         0.01104   -0.00060    0.00155   -0.00519
C7    1    0.471400    0.265926    0.470081    11.00000    0.02531    0.02197 =
         0.01284    0.00106    0.00348   -0.00846
AFIX  43
H7    2    0.523185    0.225319    0.506192    11.00000   -1.20000
AFIX   0
C8    1    0.366064    0.320967    0.486470    11.00000    0.03001    0.02714 =
         0.01580   -0.00507    0.01092   -0.01197
AFIX  43
H8    2    0.346912    0.320550    0.534467    11.00000   -1.20000
AFIX   0
C9    1    0.289155    0.376465    0.432313    11.00000    0.02432    0.02437 =
         0.02272   -0.00466    0.01212   -0.00408
AFIX  43
H9    2    0.215349    0.414178    0.442106    11.00000   -1.20000
AFIX   0
C10   1    0.321467    0.376219    0.363409    11.00000    0.01935    0.02023 =
         0.01889   -0.00072    0.00661   -0.00099
AFIX  43
H10   2    0.267428    0.413518    0.325759    11.00000   -1.20000
AFIX   0
C11   1    0.115998    0.474546    0.135671    11.00000    0.01964    0.03288 =
         0.02700   -0.00197   -0.00083    0.00279
F1    3    0.088945    0.381746    0.133132    11.00000    0.03265    0.03883 =
         0.08090   -0.00238   -0.00302   -0.01506
F2    3    0.043570    0.512647    0.074980    11.00000    0.03027    0.06641 =
         0.03284   -0.00077   -0.01240    0.01937
F3    3    0.070579    0.511908    0.191350    11.00000    0.02467    0.07367 =
         0.03774   -0.00622    0.01492    0.00138
N1    4    0.637815    0.235441    0.311682    11.00000    0.01788    0.01511 =
         0.01374   -0.00091    0.00240    0.00115
N2    4    0.426207    0.325288    0.347845    11.00000    0.01658    0.01546 =
         0.01245   -0.00035    0.00324   -0.00223
O1    5    0.358071    0.449240    0.211145    11.00000    0.02092    0.02235 =
         0.01321    0.00187    0.00066    0.00590
O2    5    0.328463    0.451668    0.078139    11.00000    0.03507    0.03158 =
         0.01389   -0.00358    0.00444    0.01360
O3    5    0.309936    0.597834    0.145622    11.00000    0.03615    0.01736 =
         0.02377    0.00246    0.01154    0.00064
S1    6    0.298768    0.496188    0.142591    11.00000    0.01791    0.01669 =
         0.01080   -0.00007    0.00262    0.00358
ZN1   7    0.500000    0.332901    0.250000    10.50000    0.01476    0.01482 =
         0.00887    0.00000    0.00233    0.00000
HKLF 4
 
REM  mn1410 in C2/c
REM R1 =  0.0274 for    3763 Fo > 4sig(Fo)  and  0.0320 for all    4183 data
REM    186 parameters refined using      0 restraints
 
END  
     
WGHT      0.0276      3.0392 

REM Highest difference peak  0.412,  deepest hole -0.404,  1-sigma level  0.064
Q1    1   0.6185  0.2214  0.3403  11.00000  0.05    0.41
Q2    1   0.0851  0.3982  0.1754  11.00000  0.05    0.41
Q3    1   0.5640  0.2483  0.3937  11.00000  0.05    0.40
Q4    1   0.6518  0.1806  0.4027  11.00000  0.05    0.40
Q5    1   0.2001  0.4917  0.1390  11.00000  0.05    0.39
Q6    1   0.3292  0.3417  0.4553  11.00000  0.05    0.37
Q7    1   0.4854  0.2654  0.4347  11.00000  0.05    0.37
Q8    1   0.8004  0.1744  0.3149  11.00000  0.05    0.36
Q9    1   0.3135  0.3818  0.4004  11.00000  0.05    0.36
Q10   1   0.4618  0.2995  0.3765  11.00000  0.05    0.36

REM The information below was added by Olex2.
REM
REM R1 = 0.0274 for 3763 Fo > 4sig(Fo) and 0.0320 for all 16425 data
REM n/a parameters refined using n/a restraints
REM Highest difference peak 0.41, deepest hole -0.40
REM Mean Shift 0, Max Shift -0.001.

REM +++ Tabular Listing of Refinement Information +++
REM R1_all = 0.0320
REM R1_gt = 0.0274
REM wR_ref = 0.0691
REM GOOF = 1.054
REM Shift_max = -0.001
REM Shift_mean = 0
REM Reflections_all = 16425
REM Reflections_gt = 3763
REM Parameters = n/a
REM Hole = -0.40
REM Peak = 0.41
REM Flack = n/a

;
_cod_data_source_file            c6cy00134c2.cif
_cod_data_source_block           compound_3
_cod_depositor_comments
'Adding full bibliography for 1542536--1542538.cif.'
_cod_database_code               1542536
_shelxl_version_number           2013-4
_chemical_oxdiff_formula         'C22 H16 F6 N4 O6 S2 Zn1'
_chemical_oxdiff_usercomment     'James's C101-B1'
_shelx_space_group_comment
;
The symmetry employed for this shelxl refinement is uniquely defined
by the following loop, which should always be used as a source of
symmetry information in preference to the above space-group names.
They are only intended as comments.
;
_reflns_odcompleteness_completeness 99.71
_reflns_odcompleteness_iscentric 1
_reflns_odcompleteness_theta     26.32
_olex2_refinement_description
;
1. Fixed Uiso
 At 1.2 times of:
  All C(H) groups
2.a Aromatic/amide H refined with riding coordinates:
 C1(H1), C2(H2), C3(H3), C4(H4), C7(H7), C8(H8), C9(H9), C10(H10)
;
_olex2_date_sample_data_collection 1409219341.36
_olex2_submission_special_instructions 'No special instructions were received'
loop_
_space_group_symop_operation_xyz
'x, y, z'
'-x, y, -z+1/2'
'x+1/2, y+1/2, z'
'-x+1/2, y+1/2, -z+1/2'
'-x, -y, -z'
'x, -y, z-1/2'
'-x+1/2, -y+1/2, -z'
'x+1/2, -y+1/2, z-1/2'
loop_
_atom_site_label
_atom_site_type_symbol
_atom_site_fract_x
_atom_site_fract_y
_atom_site_fract_z
_atom_site_U_iso_or_equiv
_atom_site_adp_type
_atom_site_occupancy
_atom_site_site_symmetry_order
_atom_site_calc_flag
_atom_site_refinement_flags_posn
_atom_site_refinement_flags_adp
_atom_site_refinement_flags_occupancy
C1 C 0.74197(15) 0.19262(10) 0.28906(8) 0.0206(3) Uani 1 1 d . . .
H1 H 0.7543 0.2038 0.2405 0.025 Uiso 1 1 calc R . .
C2 C 0.83270(15) 0.13249(10) 0.33380(9) 0.0246(3) Uani 1 1 d . . .
H2 H 0.9063 0.1030 0.3165 0.029 Uiso 1 1 calc R . .
C3 C 0.81364(15) 0.11638(10) 0.40413(9) 0.0240(3) Uani 1 1 d . . .
H3 H 0.8747 0.0758 0.4362 0.029 Uiso 1 1 calc R . .
C4 C 0.70489(15) 0.15968(9) 0.42777(8) 0.0205(3) Uani 1 1 d . . .
H4 H 0.6898 0.1488 0.4759 0.025 Uiso 1 1 calc R . .
C5 C 0.61826(13) 0.21932(9) 0.37994(7) 0.0155(2) Uani 1 1 d . . .
C6 C 0.50083(13) 0.27052(9) 0.40040(7) 0.0151(2) Uani 1 1 d . . .
C7 C 0.47140(15) 0.26593(10) 0.47008(7) 0.0201(3) Uani 1 1 d . . .
H7 H 0.5232 0.2253 0.5062 0.024 Uiso 1 1 calc R . .
C8 C 0.36606(16) 0.32097(11) 0.48647(8) 0.0234(3) Uani 1 1 d . . .
H8 H 0.3469 0.3205 0.5345 0.028 Uiso 1 1 calc R . .
C9 C 0.28916(15) 0.37647(11) 0.43231(8) 0.0228(3) Uani 1 1 d . . .
H9 H 0.2153 0.4142 0.4421 0.027 Uiso 1 1 calc R . .
C10 C 0.32147(14) 0.37622(10) 0.36341(8) 0.0191(2) Uani 1 1 d . . .
H10 H 0.2674 0.4135 0.3258 0.023 Uiso 1 1 calc R . .
C11 C 0.11600(16) 0.47455(12) 0.13567(9) 0.0273(3) Uani 1 1 d . . .
F1 F 0.08894(12) 0.38175(9) 0.13313(8) 0.0528(3) Uani 1 1 d . . .
F2 F 0.04357(11) 0.51265(9) 0.07498(6) 0.0458(3) Uani 1 1 d . . .
F3 F 0.07058(11) 0.51191(10) 0.19135(6) 0.0442(3) Uani 1 1 d . . .
N1 N 0.63782(11) 0.23544(8) 0.31168(6) 0.0157(2) Uani 1 1 d . . .
N2 N 0.42621(11) 0.32529(8) 0.34784(6) 0.0148(2) Uani 1 1 d . . .
O1 O 0.35807(10) 0.44924(7) 0.21115(5) 0.01921(19) Uani 1 1 d . . .
O2 O 0.32846(12) 0.45167(8) 0.07814(6) 0.0269(2) Uani 1 1 d . . .
O3 O 0.30994(12) 0.59783(7) 0.14562(6) 0.0250(2) Uani 1 1 d . . .
S1 S 0.29877(3) 0.49619(2) 0.14259(2) 0.01517(7) Uani 1 1 d . . .
Zn1 Zn 0.5000 0.33290(2) 0.2500 0.01282(6) Uani 1 2 d S T P
loop_
_atom_site_aniso_label
_atom_site_aniso_U_11
_atom_site_aniso_U_22
_atom_site_aniso_U_33
_atom_site_aniso_U_23
_atom_site_aniso_U_13
_atom_site_aniso_U_12
C1 0.0221(6) 0.0206(6) 0.0187(6) -0.0029(5) 0.0032(5) 0.0046(5)
C2 0.0230(7) 0.0199(6) 0.0285(7) -0.0048(5) -0.0004(5) 0.0059(5)
C3 0.0237(7) 0.0152(6) 0.0276(7) -0.0004(5) -0.0078(5) 0.0020(5)
C4 0.0244(7) 0.0173(6) 0.0165(6) 0.0025(5) -0.0040(5) -0.0022(5)
C5 0.0179(6) 0.0139(5) 0.0133(5) 0.0006(4) -0.0002(4) -0.0027(4)
C6 0.0184(6) 0.0152(5) 0.0110(5) -0.0006(4) 0.0016(4) -0.0052(4)
C7 0.0253(7) 0.0220(6) 0.0128(5) 0.0011(5) 0.0035(5) -0.0085(5)
C8 0.0300(7) 0.0271(7) 0.0158(6) -0.0051(5) 0.0109(5) -0.0120(6)
C9 0.0243(7) 0.0244(7) 0.0227(7) -0.0047(5) 0.0121(5) -0.0041(5)
C10 0.0194(6) 0.0202(6) 0.0189(6) -0.0007(5) 0.0066(5) -0.0010(5)
C11 0.0196(7) 0.0329(8) 0.0270(7) -0.0020(6) -0.0008(5) 0.0028(6)
F1 0.0326(6) 0.0388(6) 0.0809(10) -0.0024(6) -0.0030(6) -0.0151(5)
F2 0.0303(5) 0.0664(8) 0.0328(6) -0.0008(5) -0.0124(4) 0.0194(5)
F3 0.0247(5) 0.0737(8) 0.0377(6) -0.0062(6) 0.0149(4) 0.0014(5)
N1 0.0179(5) 0.0151(5) 0.0137(5) -0.0009(4) 0.0024(4) 0.0011(4)
N2 0.0166(5) 0.0155(5) 0.0124(5) -0.0004(4) 0.0032(4) -0.0022(4)
O1 0.0209(5) 0.0224(5) 0.0132(4) 0.0019(3) 0.0007(3) 0.0059(4)
O2 0.0351(6) 0.0316(6) 0.0139(5) -0.0036(4) 0.0044(4) 0.0136(5)
O3 0.0362(6) 0.0174(5) 0.0238(5) 0.0025(4) 0.0115(4) 0.0006(4)
S1 0.01791(15) 0.01669(14) 0.01080(14) -0.00007(10) 0.00262(10) 0.00358(10)
Zn1 0.01476(10) 0.01482(10) 0.00887(9) 0.000 0.00233(7) 0.000
loop_
_atom_type_symbol
_atom_type_description
_atom_type_scat_dispersion_real
_atom_type_scat_dispersion_imag
_atom_type_scat_source
C C 0.0033 0.0016 'International Tables Vol C Tables 4.2.6.8 and 6.1.1.4'
H H 0.0000 0.0000 'International Tables Vol C Tables 4.2.6.8 and 6.1.1.4'
F F 0.0171 0.0103 'International Tables Vol C Tables 4.2.6.8 and 6.1.1.4'
N N 0.0061 0.0033 'International Tables Vol C Tables 4.2.6.8 and 6.1.1.4'
O O 0.0106 0.0060 'International Tables Vol C Tables 4.2.6.8 and 6.1.1.4'
S S 0.1246 0.1234 'International Tables Vol C Tables 4.2.6.8 and 6.1.1.4'
Zn Zn 0.2839 1.4301 'International Tables Vol C Tables 4.2.6.8 and 6.1.1.4'
loop_
_exptl_crystal_face_index_h
_exptl_crystal_face_index_k
_exptl_crystal_face_index_l
_exptl_crystal_face_perp_dist
_exptl_oxdiff_crystal_face_indexfrac_h
_exptl_oxdiff_crystal_face_indexfrac_k
_exptl_oxdiff_crystal_face_indexfrac_l
_exptl_oxdiff_crystal_face_x
_exptl_oxdiff_crystal_face_y
_exptl_oxdiff_crystal_face_z
0 0 1 0.0418 0.0003 0.0006 1.0001 0.0013 0.0333 0.0200
2 -5 -1 0.1379 2.0006 -4.9989 -0.9996 -0.0279 0.1408 -0.2526
-2 5 1 0.1379 -2.0006 4.9989 0.9996 0.0279 -0.1408 0.2526
0 -1 -5 0.1043 -0.0017 -1.0027 -5.0006 0.0142 -0.1437 -0.1398
-1 2 -5 0.1033 -1.0022 1.9963 -5.0009 0.0172 -0.2423 -0.0035
-5 -5 2 0.1106 -5.0009 -4.9971 2.0002 0.4295 0.0354 -0.0779
5 5 -2 0.0943 5.0009 4.9971 -2.0002 -0.4295 -0.0354 0.0779
-3 3 5 0.0960 -2.9995 3.0020 5.0002 0.1390 0.0095 0.2690
3 -3 -5 0.0960 2.9995 -3.0020 -5.0002 -0.1390 -0.0095 -0.2690
1 1 -5 0.0913 0.9986 0.9966 -5.0007 -0.0918 -0.1605 -0.0762
0 5 -1 0.1426 -0.0006 4.9977 -1.0005 -0.1043 -0.1488 0.1799
1 -1 -5 0.0945 0.9987 -1.0027 -5.0005 -0.0506 -0.1143 -0.1562
-1 -3 5 0.1051 -0.9985 -2.9959 5.0008 0.1330 0.2067 -0.0037
1 -1 5 0.0503 1.0022 -0.9966 5.0008 -0.0378 0.2192 0.0434
-2 5 -4 0.1253 -2.0024 4.9959 -4.0011 0.0215 -0.3075 0.1528
0 0 -1 0.0960 -0.0003 -0.0006 -1.0001 -0.0013 -0.0333 -0.0200
-5 5 -1 0.1082 -5.0024 4.9977 -1.0009 0.2197 -0.2955 0.2619
-3 0 -5 0.1157 -3.0028 -0.0030 -5.0009 0.1880 -0.2548 -0.0506
-1 -2 -5 0.1123 -1.0020 -2.0023 -5.0006 0.0996 -0.1499 -0.1633
5 -5 2 0.0810 5.0028 -4.9971 2.0011 -0.2184 0.3288 -0.2420
loop_
_geom_angle_atom_site_label_1
_geom_angle_atom_site_label_2
_geom_angle_atom_site_label_3
_geom_angle
_geom_angle_site_symmetry_1
_geom_angle_site_symmetry_3
C2 C1 H1 118.8 . .
N1 C1 H1 118.8 . .
N1 C1 C2 122.40(13) . .
C1 C2 H2 120.8 . .
C3 C2 C1 118.40(13) . .
C3 C2 H2 120.8 . .
C2 C3 H3 120.2 . .
C2 C3 C4 119.57(13) . .
C4 C3 H3 120.2 . .
C3 C4 H4 120.6 . .
C3 C4 C5 118.85(13) . .
C5 C4 H4 120.6 . .
C4 C5 C6 123.04(12) . .
N1 C5 C4 121.40(13) . .
N1 C5 C6 115.55(11) . .
C7 C6 C5 122.75(12) . .
N2 C6 C5 115.92(11) . .
N2 C6 C7 121.29(12) . .
C6 C7 H7 120.3 . .
C8 C7 C6 119.36(13) . .
C8 C7 H7 120.3 . .
C7 C8 H8 120.4 . .
C9 C8 C7 119.14(13) . .
C9 C8 H8 120.4 . .
C8 C9 H9 120.6 . .
C8 C9 C10 118.72(13) . .
C10 C9 H9 120.6 . .
C9 C10 H10 118.8 . .
N2 C10 C9 122.37(13) . .
N2 C10 H10 118.8 . .
F1 C11 S1 110.97(11) . .
F2 C11 F1 107.08(14) . .
F2 C11 S1 110.90(12) . .
F3 C11 F1 108.62(15) . .
F3 C11 F2 107.34(13) . .
F3 C11 S1 111.75(11) . .
C1 N1 C5 119.37(12) . .
C1 N1 Zn1 125.44(9) . .
C5 N1 Zn1 115.15(9) . .
C6 N2 Zn1 115.11(9) . .
C10 N2 C6 119.06(11) . .
C10 N2 Zn1 125.53(9) . .
S1 O1 Zn1 138.75(6) . .
O1 S1 C11 102.12(7) . .
O2 S1 C11 103.68(7) . .
O2 S1 O1 115.02(6) . .
O3 S1 C11 103.75(7) . .
O3 S1 O1 113.75(6) . .
O3 S1 O2 116.09(7) . .
N1 Zn1 N1 98.99(6) 2_655 .
N1 Zn1 O1 166.51(4) 2_655 2_655
N1 Zn1 O1 166.51(4) . .
N1 Zn1 O1 89.94(4) 2_655 .
N1 Zn1 O1 89.94(4) . 2_655
N2 Zn1 N1 78.13(4) 2_655 2_655
N2 Zn1 N1 98.02(4) . 2_655
N2 Zn1 N1 98.02(4) 2_655 .
N2 Zn1 N1 78.13(4) . .
N2 Zn1 N2 174.16(6) 2_655 .
N2 Zn1 O1 90.69(4) . .
N2 Zn1 O1 90.69(4) 2_655 2_655
N2 Zn1 O1 93.68(4) 2_655 .
N2 Zn1 O1 93.68(4) . 2_655
O1 Zn1 O1 83.20(5) . 2_655
loop_
_geom_bond_atom_site_label_1
_geom_bond_atom_site_label_2
_geom_bond_distance
_geom_bond_site_symmetry_2
C1 H1 0.9500 .
C1 C2 1.384(2) .
C1 N1 1.3340(17) .
C2 H2 0.9500 .
C2 C3 1.378(2) .
C3 H3 0.9500 .
C3 C4 1.384(2) .
C4 H4 0.9500 .
C4 C5 1.3878(18) .
C5 C6 1.4816(18) .
C5 N1 1.3425(16) .
C6 C7 1.3871(17) .
C6 N2 1.3440(16) .
C7 H7 0.9500 .
C7 C8 1.381(2) .
C8 H8 0.9500 .
C8 C9 1.378(2) .
C9 H9 0.9500 .
C9 C10 1.3830(19) .
C10 H10 0.9500 .
C10 N2 1.3395(17) .
C11 F1 1.328(2) .
C11 F2 1.3246(18) .
C11 F3 1.3186(19) .
C11 S1 1.8174(16) .
N1 Zn1 2.1048(11) .
N2 Zn1 2.0972(11) .
O1 S1 1.4523(10) .
O1 Zn1 2.1823(9) .
O2 S1 1.4345(10) .
O3 S1 1.4304(11) .
Zn1 N1 2.1047(11) 2_655
Zn1 N2 2.0972(11) 2_655
Zn1 O1 2.1823(10) 2_655
loop_
_geom_torsion_atom_site_label_1
_geom_torsion_atom_site_label_2
_geom_torsion_atom_site_label_3
_geom_torsion_atom_site_label_4
_geom_torsion
C1 C2 C3 C4 0.5(2)
C2 C1 N1 C5 -0.8(2)
C2 C1 N1 Zn1 176.95(11)
C2 C3 C4 C5 -0.7(2)
C3 C4 C5 C6 -178.72(12)
C3 C4 C5 N1 0.1(2)
C4 C5 C6 C7 2.7(2)
C4 C5 C6 N2 -179.72(12)
C4 C5 N1 C1 0.59(19)
C4 C5 N1 Zn1 -177.38(10)
C5 C6 C7 C8 175.45(12)
C5 C6 N2 C10 -177.67(11)
C5 C6 N2 Zn1 -3.61(14)
C6 C5 N1 C1 179.53(12)
C6 C5 N1 Zn1 1.56(14)
C6 C7 C8 C9 2.5(2)
C7 C6 N2 C10 -0.03(18)
C7 C6 N2 Zn1 174.03(10)
C7 C8 C9 C10 -0.9(2)
C8 C9 C10 N2 -1.2(2)
C9 C10 N2 C6 1.7(2)
C9 C10 N2 Zn1 -171.73(10)
F1 C11 S1 O1 -60.84(13)
F1 C11 S1 O2 58.99(13)
F1 C11 S1 O3 -179.31(12)
F2 C11 S1 O1 -179.73(11)
F2 C11 S1 O2 -59.89(13)
F2 C11 S1 O3 61.81(13)
F3 C11 S1 O1 60.55(13)
F3 C11 S1 O2 -179.61(12)
F3 C11 S1 O3 -57.91(13)
N1 C1 C2 C3 0.3(2)
N1 C5 C6 C7 -176.23(12)
N1 C5 C6 N2 1.37(16)
N2 C6 C7 C8 -2.03(19)
Zn1 O1 S1 C11 118.67(10)
Zn1 O1 S1 O2 7.12(13)
Zn1 O1 S1 O3 -130.23(9)
