#------------------------------------------------------------------------------
#$Date: 2016-09-10 02:13:11 +0300 (Sat, 10 Sep 2016) $
#$Revision: 186334 $
#$URL: file:///home/coder/svn-repositories/cod/cif/1/54/34/1543428.cif $
#------------------------------------------------------------------------------
#
# This file is available in the Crystallography Open Database (COD),
# http://www.crystallography.net/
#
# All data on this site have been placed in the public domain by the
# contributors.
#
data_1543428
loop_
_publ_author_name
'Yadagiri, Dongari'
'Reddy, Angula Chandra Shekar'
'Anbarasan, Pazhamalai'
_publ_section_title
;
 Rhodium catalyzed diastereoselective synthesis of
 2,2,3,3-tetrasubstituted indolines from N-sulfonyl-1,2,3-triazoles and
 ortho-vinylanilines
;
_journal_issue                   9
_journal_name_full               'Chem. Sci.'
_journal_page_first              5934
_journal_paper_doi               10.1039/C6SC01075J
_journal_volume                  7
_journal_year                    2016
_chemical_formula_moiety         'C38  H36  N2  O3  S1'
_chemical_formula_sum            'C38 H36 N2 O3 S'
_chemical_formula_weight         600.75
_space_group_IT_number           14
_symmetry_cell_setting           monoclinic
_symmetry_Int_Tables_number      14
_symmetry_space_group_name_Hall  '-P 2ybc'
_symmetry_space_group_name_H-M   'P 1 21/c 1'
_atom_sites_solution_hydrogens   geom
_audit_block_doi                 10.5517/cc1k9c5d
_audit_conform_dict_location     ftp://ftp.iucr.org/pub/cif_core.dic
_audit_conform_dict_name         cif_core.dic
_audit_conform_dict_version      2.4.3
_audit_creation_date             2015-11-25T16:42:16-00:00
_audit_creation_method           'WinGX routine CIF_UPDATE'
_audit_update_record
;
2015-11-25 deposited with the CCDC.
2016-06-03 downloaded from the CCDC.
;
_cell_angle_alpha                90
_cell_angle_beta                 91.3638(19)
_cell_angle_gamma                90
_cell_formula_units_Z            4
_cell_length_a                   6.8957(3)
_cell_length_b                   18.2571(8)
_cell_length_c                   26.4728(13)
_cell_measurement_reflns_used    4575
_cell_measurement_temperature    296(2)
_cell_measurement_theta_max      21.77
_cell_measurement_theta_min      2.36
_cell_measurement_wavelength     0.71073
_cell_volume                     3331.9(3)
_computing_cell_refinement       'Bruker SAINT'
_computing_data_collection       'Bruker APEX2'
_computing_data_reduction        'Bruker SAINT'
_computing_molecular_graphics    'Bruker SHELXTL'
_computing_publication_material  'Bruker SHELXTL'
_computing_structure_refinement  'SHELXL-2014/7 (Sheldrick, 2014)'
_computing_structure_solution    'SHELXS-97 (Sheldrick 2008)'
_diffrn_ambient_temperature      296(2)
_diffrn_measured_fraction_theta_full 0.993
_diffrn_measured_fraction_theta_max 0.993
_diffrn_measurement_device_type  'Bruker APEX-II CCD'
_diffrn_measurement_method       '\f and \w scans'
_diffrn_radiation_probe          x-ray
_diffrn_radiation_type           MoK\a
_diffrn_radiation_wavelength     0.71073
_diffrn_reflns_av_R_equivalents  0.0332
_diffrn_reflns_Laue_measured_fraction_full 0.993
_diffrn_reflns_Laue_measured_fraction_max 0.993
_diffrn_reflns_limit_h_max       7
_diffrn_reflns_limit_h_min       -6
_diffrn_reflns_limit_k_max       21
_diffrn_reflns_limit_k_min       -17
_diffrn_reflns_limit_l_max       30
_diffrn_reflns_limit_l_min       -30
_diffrn_reflns_number            17038
_diffrn_reflns_point_group_measured_fraction_full 0.993
_diffrn_reflns_point_group_measured_fraction_max 0.993
_diffrn_reflns_theta_full        24.261
_diffrn_reflns_theta_max         24.261
_diffrn_reflns_theta_min         1.539
_exptl_absorpt_coefficient_mu    0.135
_exptl_absorpt_correction_type   none
_exptl_crystal_colour            white
_exptl_crystal_density_diffrn    1.198
_exptl_crystal_density_method    'not measured'
_exptl_crystal_description       Rectangular
_exptl_crystal_F_000             1272
_exptl_crystal_recrystallization_method 'Re-crystallisation from solvent: '
_exptl_crystal_size_max          0.25
_exptl_crystal_size_mid          0.22
_exptl_crystal_size_min          0.1
_refine_diff_density_max         0.958
_refine_diff_density_min         -0.244
_refine_diff_density_rms         0.058
_refine_ls_goodness_of_fit_ref   1.063
_refine_ls_hydrogen_treatment    constr
_refine_ls_matrix_type           full
_refine_ls_number_constraints    0
_refine_ls_number_parameters     402
_refine_ls_number_reflns         5343
_refine_ls_number_restraints     0
_refine_ls_restrained_S_all      1.063
_refine_ls_R_factor_all          0.1049
_refine_ls_R_factor_gt           0.0642
_refine_ls_shift/su_max          0
_refine_ls_shift/su_mean         0
_refine_ls_structure_factor_coef Fsqd
_refine_ls_weighting_details
'w=1/[\s^2^(Fo^2^)+(0.1039P)^2^+2.2091P] where P=(Fo^2^+2Fc^2^)/3'
_refine_ls_weighting_scheme      calc
_refine_ls_wR_factor_gt          0.1774
_refine_ls_wR_factor_ref         0.2138
_reflns_number_gt                3423
_reflns_number_total             5343
_reflns_threshold_expression     'I > 2\s(I)'
_iucr_refine_instructions_details
;
TITL 279 in P2(1)/c
CELL 0.71073   6.89570  18.25710  26.47280  90.0000  91.3638  90.0000
ZERR 4 0.00030 0.00080 0.00130 0.0000 0.0019 0.0000
LATT 1
SYMM -X, 0.5+Y, 0.5-Z
SFAC C  H  N  O  S
UNIT 152  144  8  12  4
OMIT -3 50
L.S. 8
EXTI 0.000948
ACTA
BOND $H
FMAP 2
PLAN 5
SIZE 0.100 0.220 0.250
CONF
WGHT   0.103900   2.209100
FVAR 0.120050
TEMP 23.000
MOLE 1
C1     1   0.721231   0.187305   0.164019  11.000000   0.047160 =
           0.031380   0.059130   0.004730   0.011920   0.003910
AFIX 13
H1     2   0.810604   0.164211   0.188554  11.000000  -1.200000
AFIX 0
C2     1   0.835590   0.298698   0.208379  11.000000   0.038350 =
           0.038380   0.047310   0.006770   0.006800   0.001700
C3     1   0.979845   0.271583   0.240590  11.000000   0.040570 =
           0.049520   0.064850   0.019040   0.008950   0.009620
AFIX 43
H3     2   1.035575   0.226005   0.234978  11.000000  -1.200000
AFIX 0
C4     1   1.038435   0.314229   0.281275  11.000000   0.046810 =
           0.076310   0.054460   0.013280  -0.005120   0.003250
AFIX 43
H4     2   1.135367   0.296795   0.303146  11.000000  -1.200000
AFIX 0
C5     1   0.958395   0.381127   0.290327  11.000000   0.058750 =
           0.070920   0.050400   0.000350  -0.008060  -0.003460
C6     1   0.812245   0.408542   0.258461  11.000000   0.063520 =
           0.047740   0.051080  -0.002020  -0.001130   0.003140
AFIX 43
H6     2   0.756987   0.454124   0.264352  11.000000  -1.200000
AFIX 0
C7     1   0.751069   0.365848   0.217531  11.000000   0.043280 =
           0.040270   0.046160   0.005450   0.002280   0.005340
C8     1   0.594319   0.382573   0.177663  11.000000   0.043470 =
           0.031380   0.051640   0.000950   0.000670   0.007480
C9     1   0.562805   0.302354   0.155497  11.000000   0.037240 =
           0.030700   0.046910   0.000180   0.005290   0.003960
C10    1   0.437514   0.254326   0.189493  11.000000   0.043490 =
           0.036320   0.050550   0.004670   0.008540   0.003450
AFIX 23
H10A   2   0.449725   0.269369   0.224567  11.000000  -1.200000
H10B   2   0.301972   0.256205   0.178902  11.000000  -1.200000
AFIX 0
C11    1   0.746154   0.152397   0.112543  11.000000   0.068840 =
           0.029120   0.067850   0.000330   0.019890   0.007630
C12    1   0.597472   0.120873   0.085232  11.000000   0.095320 =
           0.050060   0.072490  -0.007050   0.015850  -0.001210
AFIX 43
H12    2   0.475161   0.117059   0.099060  11.000000  -1.200000
AFIX 0
C13    1   0.628706   0.094576   0.036955  11.000000   0.149790 =
           0.064570   0.076470  -0.019840   0.013390  -0.004740
AFIX 43
H13    2   0.526035   0.073727   0.018639  11.000000  -1.200000
AFIX 0
C14    1   0.809069   0.098680   0.015479  11.000000   0.161810 =
           0.056140   0.077420  -0.014580   0.044100   0.008910
C15    1   0.954106   0.128870   0.043050  11.000000   0.134400 =
           0.067040   0.112330  -0.012870   0.069470   0.007850
AFIX 43
H15    2   1.076245   0.132412   0.029091  11.000000  -1.200000
AFIX 0
C16    1   0.928081   0.155040   0.091770  11.000000   0.085540 =
           0.051310   0.087170  -0.009930   0.037560   0.006330
AFIX 43
H16    2   1.032552   0.174221   0.110279  11.000000  -1.200000
AFIX 0
C17    1   0.837168   0.072657  -0.038954  11.000000   0.284260 =
           0.108440   0.093820  -0.028930   0.068180   0.010470
AFIX 137
H17A   2   0.719324   0.080103  -0.058311  11.000000  -1.500000
H17B   2   0.869601   0.021521  -0.038857  11.000000  -1.500000
H17C   2   0.940164   0.100060  -0.053760  11.000000  -1.500000
AFIX 0
C18    1   0.606239   0.135925   0.278087  11.000000   0.065280 =
           0.055260   0.063920   0.025430   0.020960   0.009570
C19    1   0.788350   0.104704   0.286055  11.000000   0.077320 =
           0.064300   0.080630   0.031150   0.021200   0.012700
AFIX 43
H19    2   0.832905   0.069963   0.263408  11.000000  -1.200000
AFIX 0
C20    1   0.901660   0.124138   0.326281  11.000000   0.076740 =
           0.101580   0.084930   0.042710   0.011290   0.013180
AFIX 43
H20    2   1.022277   0.102178   0.331295  11.000000  -1.200000
AFIX 0
C21    1   0.839553   0.176154   0.359784  11.000000   0.092730 =
           0.121420   0.071440   0.039100  -0.001490   0.000440
C22    1   0.655942   0.206228   0.352991  11.000000   0.113950 =
           0.123960   0.061190   0.009580   0.011520   0.024960
AFIX 43
H22    2   0.610647   0.240176   0.376096  11.000000  -1.200000
AFIX 0
C23    1   0.540152   0.185921   0.312022  11.000000   0.080630 =
           0.090520   0.065490   0.014760   0.016300   0.023170
AFIX 43
H23    2   0.417306   0.206273   0.307550  11.000000  -1.200000
AFIX 0
C24    1   0.969554   0.203505   0.403300  11.000000   0.127790 =
           0.209830   0.091080   0.032390  -0.022310  -0.004650
AFIX 137
H24A   2   0.960316   0.170679   0.431470  11.000000  -1.500000
H24B   2   0.928587   0.251561   0.413187  11.000000  -1.500000
H24C   2   1.101504   0.205472   0.392606  11.000000  -1.500000
AFIX 0
C25    1   0.969661   0.486928   0.340622  11.000000   0.184800 =
           0.085980   0.069880   0.004880  -0.028120  -0.038480
AFIX 137
H25A   2   0.990301   0.516110   0.311066  11.000000  -1.500000
H25B   2   1.043527   0.506771   0.368608  11.000000  -1.500000
H25C   2   0.834349   0.487311   0.348349  11.000000  -1.500000
AFIX 0
C26    1   0.409061   0.412280   0.200954  11.000000   0.049820 =
           0.044430   0.069270  -0.008010   0.002280   0.011950
AFIX 137
H26A   2   0.376848   0.383041   0.229703  11.000000  -1.500000
H26B   2   0.304637   0.410340   0.176352  11.000000  -1.500000
H26C   2   0.429531   0.462088   0.211410  11.000000  -1.500000
AFIX 0
C27    1   0.672125   0.433522   0.136966  11.000000   0.051520 =
           0.026250   0.054070   0.000360  -0.008640   0.001900
C28    1   0.548784   0.477898   0.108144  11.000000   0.064200 =
           0.052470   0.093530   0.025940  -0.008750   0.003720
AFIX 43
H28    2   0.417797   0.479881   0.115625  11.000000  -1.200000
AFIX 0
C29    1   0.617083   0.519114   0.068597  11.000000   0.100050 =
           0.065440   0.092800   0.038690  -0.018590   0.004990
AFIX 43
H29    2   0.532043   0.548659   0.049943  11.000000  -1.200000
AFIX 0
C30    1   0.808123   0.516799   0.056717  11.000000   0.106150 =
           0.064580   0.075350   0.029770   0.002860  -0.015960
AFIX 43
H30    2   0.852845   0.543716   0.029536  11.000000  -1.200000
AFIX 0
C31    1   0.933487   0.474802   0.084888  11.000000   0.069090 =
           0.068210   0.079000   0.019800   0.005350  -0.008960
AFIX 43
H31    2   1.064286   0.473541   0.077141  11.000000  -1.200000
AFIX 0
C32    1   0.867094   0.434403   0.124635  11.000000   0.052260 =
           0.048970   0.066270   0.015270  -0.004390  -0.004040
AFIX 43
H32    2   0.954941   0.406834   0.143871  11.000000  -1.200000
AFIX 0
C33    1   0.494269   0.301901   0.100313  11.000000   0.049560 =
           0.029120   0.050940   0.003140   0.001690   0.000720
C34    1   0.299388   0.304378   0.087244  11.000000   0.049250 =
           0.052640   0.064300   0.006180  -0.001130  -0.003480
AFIX 43
H34    2   0.207946   0.305187   0.112500  11.000000  -1.200000
AFIX 0
C35    1   0.237962   0.305680   0.036902  11.000000   0.062080 =
           0.089340   0.074850   0.011510  -0.017120  -0.007680
AFIX 43
H35    2   0.106238   0.307594   0.028617  11.000000  -1.200000
AFIX 0
C36    1   0.370609   0.304154  -0.000220  11.000000   0.094920 =
           0.090130   0.057000   0.010540  -0.018990  -0.007810
AFIX 43
H36    2   0.330041   0.304358  -0.033975  11.000000  -1.200000
AFIX 0
C37    1   0.564580   0.302312   0.012344  11.000000   0.088630 =
           0.078290   0.055100   0.008680   0.011310   0.001160
AFIX 43
H37    2   0.654978   0.301644  -0.013168  11.000000  -1.200000
AFIX 0
C38    1   0.628036   0.301432   0.062136  11.000000   0.056650 =
           0.048760   0.050410   0.003000   0.007510   0.000590
AFIX 43
H38    2   0.760149   0.300528   0.070038  11.000000  -1.200000
AFIX 0
N1     3   0.757665   0.266427   0.162925  11.000000   0.040780 =
           0.029300   0.050760   0.004320   0.006710   0.004490
N2     3   0.518935   0.180719   0.182066  11.000000   0.048710 =
           0.031320   0.059610   0.005010   0.017500   0.003320
O1     4   0.542105   0.050066   0.201966  11.000000   0.091870 =
           0.034090   0.105350   0.012580   0.024030   0.007280
O2     4   0.267848   0.123521   0.233433  11.000000   0.056300 =
           0.057830   0.101800   0.018740   0.025970  -0.003710
O3     4   1.026786   0.417763   0.332002  11.000000   0.106000 =
           0.105520   0.070040  -0.020320  -0.027320   0.000450
S1     5   0.469841   0.116404   0.222715  11.000000   0.063680 =
           0.037690   0.077740   0.015880   0.018690   0.000850
HKLF 4
END
;
_cod_data_source_file            c6sc01075j2.cif
_cod_data_source_block           shelx
_cod_depositor_comments
'Adding full bibliography for 1543428--1543429.cif.'
_cod_original_sg_symbol_H-M      'P 21/c'
_cod_database_code               1543428
_shelx_estimated_absorpt_t_min   0.967
_shelx_estimated_absorpt_t_max   0.987
loop_
_symmetry_equiv_pos_as_xyz
'x, y, z'
'-x, y+1/2, -z+1/2'
'-x, -y, -z'
'x, -y-1/2, z-1/2'
loop_
_atom_site_label
_atom_site_type_symbol
_atom_site_fract_x
_atom_site_fract_y
_atom_site_fract_z
_atom_site_U_iso_or_equiv
_atom_site_adp_type
_atom_site_occupancy
_atom_site_calc_flag
C1 C 0.7212(5) 0.18731(18) 0.16402(14) 0.0457(9) Uani 1 d
H1 H 0.8106 0.1642 0.1886 0.055 Uiso 1 calc
C2 C 0.8356(5) 0.29870(18) 0.20838(13) 0.0413(8) Uani 1 d
C3 C 0.9798(5) 0.2716(2) 0.24059(14) 0.0515(10) Uani 1 d
H3 H 1.0356 0.226 0.235 0.062 Uiso 1 calc
C4 C 1.0384(5) 0.3142(2) 0.28128(14) 0.0593(11) Uani 1 d
H4 H 1.1354 0.2968 0.3031 0.071 Uiso 1 calc
C5 C 0.9584(6) 0.3811(2) 0.29033(14) 0.0602(11) Uani 1 d
C6 C 0.8122(6) 0.4085(2) 0.25846(13) 0.0542(10) Uani 1 d
H6 H 0.757 0.4541 0.2644 0.065 Uiso 1 calc
C7 C 0.7511(5) 0.36585(19) 0.21753(12) 0.0432(8) Uani 1 d
C8 C 0.5943(5) 0.38257(17) 0.17766(13) 0.0422(8) Uani 1 d
C9 C 0.5628(5) 0.30235(17) 0.15550(12) 0.0382(8) Uani 1 d
C10 C 0.4375(5) 0.25433(18) 0.18949(13) 0.0433(8) Uani 1 d
H10A H 0.4497 0.2694 0.2246 0.052 Uiso 1 calc
H10B H 0.302 0.2562 0.1789 0.052 Uiso 1 calc
C11 C 0.7462(6) 0.15240(19) 0.11254(15) 0.0550(10) Uani 1 d
C12 C 0.5975(7) 0.1209(2) 0.08523(17) 0.0724(12) Uani 1 d
H12 H 0.4752 0.1171 0.0991 0.087 Uiso 1 calc
C13 C 0.6287(10) 0.0946(3) 0.0370(2) 0.0968(17) Uani 1 d
H13 H 0.526 0.0737 0.0186 0.116 Uiso 1 calc
C14 C 0.8091(11) 0.0987(3) 0.0155(2) 0.0978(19) Uani 1 d
C15 C 0.9541(10) 0.1289(3) 0.0430(2) 0.104(2) Uani 1 d
H15 H 1.0762 0.1324 0.0291 0.124 Uiso 1 calc
C16 C 0.9281(7) 0.1550(2) 0.09177(17) 0.0741(13) Uani 1 d
H16 H 1.0326 0.1742 0.1103 0.089 Uiso 1 calc
C17 C 0.8372(13) 0.0727(4) -0.0390(2) 0.161(3) Uani 1 d
H17A H 0.7193 0.0801 -0.0583 0.242 Uiso 1 calc
H17B H 0.8696 0.0215 -0.0389 0.242 Uiso 1 calc
H17C H 0.9402 0.1001 -0.0538 0.242 Uiso 1 calc
C18 C 0.6062(6) 0.1359(2) 0.27809(15) 0.0612(11) Uani 1 d
C19 C 0.7884(7) 0.1047(2) 0.28606(19) 0.0738(13) Uani 1 d
H19 H 0.8329 0.07 0.2634 0.089 Uiso 1 calc
C20 C 0.9017(8) 0.1241(3) 0.3263(2) 0.0876(16) Uani 1 d
H20 H 1.0223 0.1022 0.3313 0.105 Uiso 1 calc
C21 C 0.8396(9) 0.1762(4) 0.3598(2) 0.0953(17) Uani 1 d
C22 C 0.6559(9) 0.2062(3) 0.35299(19) 0.0996(18) Uani 1 d
H22 H 0.6106 0.2402 0.3761 0.119 Uiso 1 calc
C23 C 0.5402(7) 0.1859(3) 0.31202(17) 0.0786(14) Uani 1 d
H23 H 0.4173 0.2063 0.3075 0.094 Uiso 1 calc
C24 C 0.9696(10) 0.2035(4) 0.4033(2) 0.143(3) Uani 1 d
H24A H 0.9603 0.1707 0.4315 0.215 Uiso 1 calc
H24B H 0.9286 0.2516 0.4132 0.215 Uiso 1 calc
H24C H 1.1015 0.2055 0.3926 0.215 Uiso 1 calc
C25 C 0.9697(10) 0.4869(3) 0.3406(2) 0.114(2) Uani 1 d
H25A H 0.9903 0.5161 0.3111 0.171 Uiso 1 calc
H25B H 1.0435 0.5068 0.3686 0.171 Uiso 1 calc
H25C H 0.8343 0.4873 0.3483 0.171 Uiso 1 calc
C26 C 0.4091(5) 0.4123(2) 0.20095(15) 0.0545(10) Uani 1 d
H26A H 0.3768 0.383 0.2297 0.082 Uiso 1 calc
H26B H 0.3046 0.4103 0.1764 0.082 Uiso 1 calc
H26C H 0.4295 0.4621 0.2114 0.082 Uiso 1 calc
C27 C 0.6721(5) 0.43352(17) 0.13697(13) 0.0441(9) Uani 1 d
C28 C 0.5488(6) 0.4779(2) 0.10814(17) 0.0702(12) Uani 1 d
H28 H 0.4178 0.4799 0.1156 0.084 Uiso 1 calc
C29 C 0.6171(8) 0.5191(3) 0.06860(19) 0.0864(15) Uani 1 d
H29 H 0.532 0.5487 0.0499 0.104 Uiso 1 calc
C30 C 0.8081(8) 0.5168(3) 0.05672(18) 0.0820(14) Uani 1 d
H30 H 0.8528 0.5437 0.0295 0.098 Uiso 1 calc
C31 C 0.9335(7) 0.4748(2) 0.08489(17) 0.0720(12) Uani 1 d
H31 H 1.0643 0.4735 0.0771 0.086 Uiso 1 calc
C32 C 0.8671(5) 0.4344(2) 0.12464(15) 0.0559(10) Uani 1 d
H32 H 0.9549 0.4068 0.1439 0.067 Uiso 1 calc
C33 C 0.4943(5) 0.30190(17) 0.10031(13) 0.0432(8) Uani 1 d
C34 C 0.2994(5) 0.3044(2) 0.08724(15) 0.0554(10) Uani 1 d
H34 H 0.2079 0.3052 0.1125 0.067 Uiso 1 calc
C35 C 0.2380(7) 0.3057(3) 0.03690(18) 0.0757(13) Uani 1 d
H35 H 0.1062 0.3076 0.0286 0.091 Uiso 1 calc
C36 C 0.3706(8) 0.3042(3) -0.00022(17) 0.0810(14) Uani 1 d
H36 H 0.33 0.3044 -0.034 0.097 Uiso 1 calc
C37 C 0.5646(7) 0.3023(2) 0.01234(16) 0.0739(13) Uani 1 d
H37 H 0.655 0.3016 -0.0132 0.089 Uiso 1 calc
C38 C 0.6280(6) 0.30143(19) 0.06214(13) 0.0518(9) Uani 1 d
H38 H 0.7601 0.3005 0.07 0.062 Uiso 1 calc
N1 N 0.7577(4) 0.26643(14) 0.16292(10) 0.0402(7) Uani 1 d
N2 N 0.5189(4) 0.18072(15) 0.18207(11) 0.0463(7) Uani 1 d
O1 O 0.5421(4) 0.05007(14) 0.20197(12) 0.0768(9) Uani 1 d
O2 O 0.2678(4) 0.12352(15) 0.23343(11) 0.0716(8) Uani 1 d
O3 O 1.0268(5) 0.4178(2) 0.33200(12) 0.0943(11) Uani 1 d
S1 S 0.46984(15) 0.11640(5) 0.22272(4) 0.0594(4) Uani 1 d
loop_
_atom_site_aniso_label
_atom_site_aniso_U_11
_atom_site_aniso_U_22
_atom_site_aniso_U_33
_atom_site_aniso_U_23
_atom_site_aniso_U_13
_atom_site_aniso_U_12
C1 0.047(2) 0.0314(19) 0.059(2) 0.0047(16) 0.0119(16) 0.0039(15)
C2 0.0384(19) 0.038(2) 0.0473(19) 0.0068(16) 0.0068(15) 0.0017(15)
C3 0.041(2) 0.050(2) 0.065(2) 0.0190(19) 0.0090(18) 0.0096(17)
C4 0.047(2) 0.076(3) 0.054(2) 0.013(2) -0.0051(18) 0.003(2)
C5 0.059(3) 0.071(3) 0.050(2) 0.000(2) -0.0081(19) -0.003(2)
C6 0.064(3) 0.048(2) 0.051(2) -0.0020(18) -0.0011(18) 0.0031(18)
C7 0.043(2) 0.040(2) 0.0462(19) 0.0054(16) 0.0023(15) 0.0053(15)
C8 0.043(2) 0.0314(18) 0.052(2) 0.0009(15) 0.0007(15) 0.0075(15)
C9 0.0372(19) 0.0307(18) 0.0469(19) 0.0002(14) 0.0053(14) 0.0040(14)
C10 0.043(2) 0.0363(19) 0.051(2) 0.0047(15) 0.0085(15) 0.0034(15)
C11 0.069(3) 0.0291(19) 0.068(3) 0.0003(18) 0.020(2) 0.0076(18)
C12 0.095(4) 0.050(3) 0.072(3) -0.007(2) 0.016(2) -0.001(2)
C13 0.150(5) 0.065(3) 0.076(3) -0.020(3) 0.013(3) -0.005(3)
C14 0.162(6) 0.056(3) 0.077(4) -0.015(3) 0.044(4) 0.009(3)
C15 0.134(5) 0.067(4) 0.112(4) -0.013(3) 0.069(4) 0.008(3)
C16 0.086(3) 0.051(3) 0.087(3) -0.010(2) 0.038(3) 0.006(2)
C17 0.284(10) 0.108(5) 0.094(5) -0.029(4) 0.068(5) 0.010(6)
C18 0.065(3) 0.055(3) 0.064(3) 0.025(2) 0.021(2) 0.010(2)
C19 0.077(3) 0.064(3) 0.081(3) 0.031(2) 0.021(3) 0.013(2)
C20 0.077(4) 0.102(4) 0.085(4) 0.043(3) 0.011(3) 0.013(3)
C21 0.093(4) 0.121(5) 0.071(3) 0.039(3) -0.001(3) 0.000(3)
C22 0.114(5) 0.124(5) 0.061(3) 0.010(3) 0.012(3) 0.025(4)
C23 0.081(3) 0.091(4) 0.065(3) 0.015(3) 0.016(2) 0.023(3)
C24 0.128(6) 0.210(8) 0.091(4) 0.032(5) -0.022(4) -0.005(5)
C25 0.185(6) 0.086(4) 0.070(3) 0.005(3) -0.028(4) -0.038(4)
C26 0.050(2) 0.044(2) 0.069(2) -0.0080(19) 0.0023(18) 0.0120(17)
C27 0.052(2) 0.0262(18) 0.054(2) 0.0004(15) -0.0086(17) 0.0019(15)
C28 0.064(3) 0.052(3) 0.094(3) 0.026(2) -0.009(2) 0.004(2)
C29 0.100(4) 0.065(3) 0.093(4) 0.039(3) -0.019(3) 0.005(3)
C30 0.106(4) 0.065(3) 0.075(3) 0.030(3) 0.003(3) -0.016(3)
C31 0.069(3) 0.068(3) 0.079(3) 0.020(2) 0.005(2) -0.009(2)
C32 0.052(2) 0.049(2) 0.066(2) 0.0153(19) -0.0044(19) -0.0040(18)
C33 0.050(2) 0.0291(19) 0.051(2) 0.0031(15) 0.0017(17) 0.0007(15)
C34 0.049(2) 0.053(2) 0.064(2) 0.0062(19) -0.0011(18) -0.0035(18)
C35 0.062(3) 0.089(4) 0.075(3) 0.012(3) -0.017(2) -0.008(2)
C36 0.095(4) 0.090(4) 0.057(3) 0.011(2) -0.019(3) -0.008(3)
C37 0.089(4) 0.078(3) 0.055(3) 0.009(2) 0.011(2) 0.001(2)
C38 0.057(2) 0.049(2) 0.050(2) 0.0030(18) 0.0075(18) 0.0006(18)
N1 0.0408(16) 0.0293(15) 0.0508(16) 0.0043(13) 0.0067(13) 0.0045(12)
N2 0.0487(18) 0.0313(16) 0.0596(18) 0.0050(13) 0.0175(14) 0.0033(13)
O1 0.092(2) 0.0341(15) 0.105(2) 0.0126(15) 0.0240(18) 0.0073(14)
O2 0.0563(18) 0.0578(18) 0.102(2) 0.0187(16) 0.0260(15) -0.0037(13)
O3 0.106(3) 0.106(3) 0.070(2) -0.020(2) -0.0273(18) 0.000(2)
S1 0.0637(7) 0.0377(6) 0.0777(7) 0.0159(5) 0.0187(5) 0.0008(4)
loop_
_atom_type_symbol
_atom_type_description
_atom_type_scat_dispersion_real
_atom_type_scat_dispersion_imag
_atom_type_scat_source
C C 0.0033 0.0016 'International Tables Vol C Tables 4.2.6.8 and 6.1.1.4'
H H 0 0 'International Tables Vol C Tables 4.2.6.8 and 6.1.1.4'
N N 0.0061 0.0033 'International Tables Vol C Tables 4.2.6.8 and 6.1.1.4'
O O 0.0106 0.006 'International Tables Vol C Tables 4.2.6.8 and 6.1.1.4'
S S 0.1246 0.1234 'International Tables Vol C Tables 4.2.6.8 and 6.1.1.4'
loop_
_geom_angle_atom_site_label_1
_geom_angle_atom_site_label_2
_geom_angle_atom_site_label_3
_geom_angle
N1 C1 N2 104.4(2)
N1 C1 C11 111.9(3)
N2 C1 C11 112.4(3)
N1 C1 H1 109.4
N2 C1 H1 109.4
C11 C1 H1 109.4
C7 C2 C3 120.6(3)
C7 C2 N1 111.2(3)
C3 C2 N1 128.2(3)
C4 C3 C2 118.1(3)
C4 C3 H3 121
C2 C3 H3 121
C5 C4 C3 122.0(4)
C5 C4 H4 119
C3 C4 H4 119
C4 C5 O3 116.6(4)
C4 C5 C6 120.4(4)
O3 C5 C6 123.0(4)
C5 C6 C7 118.2(4)
C5 C6 H6 120.9
C7 C6 H6 120.9
C2 C7 C6 120.8(3)
C2 C7 C8 110.6(3)
C6 C7 C8 128.6(3)
C7 C8 C27 110.8(3)
C7 C8 C26 112.2(3)
C27 C8 C26 112.2(3)
C7 C8 C9 99.2(2)
C27 C8 C9 110.3(3)
C26 C8 C9 111.5(3)
N1 C9 C33 112.2(3)
N1 C9 C10 100.8(2)
C33 C9 C10 113.1(3)
N1 C9 C8 103.9(2)
C33 C9 C8 113.3(3)
C10 C9 C8 112.5(3)
N2 C10 C9 102.8(3)
N2 C10 H10A 111.2
C9 C10 H10A 111.2
N2 C10 H10B 111.2
C9 C10 H10B 111.2
H10A C10 H10B 109.1
C12 C11 C16 118.7(4)
C12 C11 C1 123.5(4)
C16 C11 C1 117.8(4)
C11 C12 C13 120.1(5)
C11 C12 H12 119.9
C13 C12 H12 119.9
C14 C13 C12 121.4(6)
C14 C13 H13 119.3
C12 C13 H13 119.3
C15 C14 C13 117.7(5)
C15 C14 C17 121.9(6)
C13 C14 C17 120.3(7)
C14 C15 C16 122.3(5)
C14 C15 H15 118.9
C16 C15 H15 118.9
C11 C16 C15 119.7(5)
C11 C16 H16 120.2
C15 C16 H16 120.2
C14 C17 H17A 109.5
C14 C17 H17B 109.5
H17A C17 H17B 109.5
C14 C17 H17C 109.5
H17A C17 H17C 109.5
H17B C17 H17C 109.5
C23 C18 C19 119.2(4)
C23 C18 S1 120.2(3)
C19 C18 S1 120.4(4)
C20 C19 C18 121.0(5)
C20 C19 H19 119.5
C18 C19 H19 119.5
C19 C20 C21 120.4(5)
C19 C20 H20 119.8
C21 C20 H20 119.8
C20 C21 C22 119.1(5)
C20 C21 C24 121.8(6)
C22 C21 C24 119.1(6)
C23 C22 C21 120.3(5)
C23 C22 H22 119.9
C21 C22 H22 119.9
C18 C23 C22 120.0(5)
C18 C23 H23 120
C22 C23 H23 120
C21 C24 H24A 109.5
C21 C24 H24B 109.5
H24A C24 H24B 109.5
C21 C24 H24C 109.5
H24A C24 H24C 109.5
H24B C24 H24C 109.5
O3 C25 H25A 109.5
O3 C25 H25B 109.5
H25A C25 H25B 109.5
O3 C25 H25C 109.5
H25A C25 H25C 109.5
H25B C25 H25C 109.5
C8 C26 H26A 109.5
C8 C26 H26B 109.5
H26A C26 H26B 109.5
C8 C26 H26C 109.5
H26A C26 H26C 109.5
H26B C26 H26C 109.5
C28 C27 C32 116.5(4)
C28 C27 C8 121.4(3)
C32 C27 C8 122.0(3)
C29 C28 C27 121.2(4)
C29 C28 H28 119.4
C27 C28 H28 119.4
C30 C29 C28 120.5(4)
C30 C29 H29 119.8
C28 C29 H29 119.8
C29 C30 C31 119.7(4)
C29 C30 H30 120.2
C31 C30 H30 120.2
C30 C31 C32 120.2(4)
C30 C31 H31 119.9
C32 C31 H31 119.9
C31 C32 C27 121.9(4)
C31 C32 H32 119.1
C27 C32 H32 119.1
C34 C33 C38 118.6(3)
C34 C33 C9 121.2(3)
C38 C33 C9 120.2(3)
C33 C34 C35 120.9(4)
C33 C34 H34 119.5
C35 C34 H34 119.5
C36 C35 C34 119.9(4)
C36 C35 H35 120.1
C34 C35 H35 120.1
C35 C36 C37 119.7(4)
C35 C36 H36 120.2
C37 C36 H36 120.2
C36 C37 C38 121.2(4)
C36 C37 H37 119.4
C38 C37 H37 119.4
C37 C38 C33 119.7(4)
C37 C38 H38 120.1
C33 C38 H38 120.1
C2 N1 C1 116.7(3)
C2 N1 C9 104.3(2)
C1 N1 C9 106.2(2)
C10 N2 C1 109.4(2)
C10 N2 S1 118.9(2)
C1 N2 S1 118.7(2)
C25 O3 C5 120.1(4)
O1 S1 O2 120.24(18)
O1 S1 N2 106.09(16)
O2 S1 N2 106.42(15)
O1 S1 C18 108.0(2)
O2 S1 C18 108.62(19)
N2 S1 C18 106.75(17)
loop_
_geom_bond_atom_site_label_1
_geom_bond_atom_site_label_2
_geom_bond_distance
C1 N1 1.467(4)
C1 N2 1.490(4)
C1 C11 1.518(5)
C1 H1 0.98
C2 C7 1.381(5)
C2 C3 1.386(5)
C2 N1 1.433(4)
C3 C4 1.382(5)
C3 H3 0.93
C4 C5 1.364(6)
C4 H4 0.93
C5 O3 1.365(5)
C5 C6 1.392(5)
C6 C7 1.392(5)
C6 H6 0.93
C7 C8 1.524(4)
C8 C27 1.530(5)
C8 C26 1.531(5)
C8 C9 1.591(4)
C9 N1 1.504(4)
C9 C33 1.525(5)
C9 C10 1.537(4)
C10 N2 1.471(4)
C10 H10A 0.97
C10 H10B 0.97
C11 C12 1.367(6)
C11 C16 1.383(5)
C12 C13 1.387(6)
C12 H12 0.93
C13 C14 1.382(8)
C13 H13 0.93
C14 C15 1.342(8)
C14 C17 1.534(7)
C15 C16 1.391(7)
C15 H15 0.93
C16 H16 0.93
C17 H17A 0.96
C17 H17B 0.96
C17 H17C 0.96
C18 C23 1.367(6)
C18 C19 1.391(6)
C18 S1 1.759(4)
C19 C20 1.353(7)
C19 H19 0.93
C20 C21 1.375(8)
C20 H20 0.93
C21 C22 1.388(7)
C21 C24 1.527(8)
C22 C23 1.382(7)
C22 H22 0.93
C23 H23 0.93
C24 H24A 0.96
C24 H24B 0.96
C24 H24C 0.96
C25 O3 1.344(6)
C25 H25A 0.96
C25 H25B 0.96
C25 H25C 0.96
C26 H26A 0.96
C26 H26B 0.96
C26 H26C 0.96
C27 C28 1.390(5)
C27 C32 1.391(5)
C28 C29 1.381(6)
C28 H28 0.93
C29 C30 1.362(7)
C29 H29 0.93
C30 C31 1.364(6)
C30 H30 0.93
C31 C32 1.373(5)
C31 H31 0.93
C32 H32 0.93
C33 C34 1.380(5)
C33 C38 1.384(5)
C34 C35 1.389(6)
C34 H34 0.93
C35 C36 1.359(6)
C35 H35 0.93
C36 C37 1.371(6)
C36 H36 0.93
C37 C38 1.379(5)
C37 H37 0.93
C38 H38 0.93
N2 S1 1.634(3)
O1 S1 1.425(3)
O2 S1 1.434(3)
loop_
_geom_torsion_atom_site_label_1
_geom_torsion_atom_site_label_2
_geom_torsion_atom_site_label_3
_geom_torsion_atom_site_label_4
_geom_torsion
C7 C2 C3 C4 -1.2(5)
N1 C2 C3 C4 177.0(3)
C2 C3 C4 C5 0.2(6)
C3 C4 C5 O3 179.3(4)
C3 C4 C5 C6 0.4(6)
C4 C5 C6 C7 0.1(6)
O3 C5 C6 C7 -178.8(4)
C3 C2 C7 C6 1.7(5)
N1 C2 C7 C6 -176.8(3)
C3 C2 C7 C8 -178.7(3)
N1 C2 C7 C8 2.8(4)
C5 C6 C7 C2 -1.1(5)
C5 C6 C7 C8 179.4(4)
C2 C7 C8 C27 -98.9(3)
C6 C7 C8 C27 80.7(4)
C2 C7 C8 C26 134.9(3)
C6 C7 C8 C26 -45.6(5)
C2 C7 C8 C9 17.1(3)
C6 C7 C8 C9 -163.4(3)
C7 C8 C9 N1 -29.6(3)
C27 C8 C9 N1 86.7(3)
C26 C8 C9 N1 -147.9(3)
C7 C8 C9 C33 -151.7(3)
C27 C8 C9 C33 -35.4(4)
C26 C8 C9 C33 90.0(3)
C7 C8 C9 C10 78.5(3)
C27 C8 C9 C10 -165.2(3)
C26 C8 C9 C10 -39.8(4)
N1 C9 C10 N2 -37.0(3)
C33 C9 C10 N2 83.0(3)
C8 C9 C10 N2 -147.1(3)
N1 C1 C11 C12 -114.8(4)
N2 C1 C11 C12 2.2(5)
N1 C1 C11 C16 63.0(4)
N2 C1 C11 C16 180.0(3)
C16 C11 C12 C13 -2.2(6)
C1 C11 C12 C13 175.5(4)
C11 C12 C13 C14 0.7(7)
C12 C13 C14 C15 0.2(8)
C12 C13 C14 C17 -177.0(5)
C13 C14 C15 C16 0.5(9)
C17 C14 C15 C16 177.6(5)
C12 C11 C16 C15 2.9(6)
C1 C11 C16 C15 -175.0(4)
C14 C15 C16 C11 -2.1(8)
C23 C18 C19 C20 -1.2(6)
S1 C18 C19 C20 174.2(3)
C18 C19 C20 C21 -0.9(7)
C19 C20 C21 C22 2.7(8)
C19 C20 C21 C24 -175.4(5)
C20 C21 C22 C23 -2.3(8)
C24 C21 C22 C23 175.8(5)
C19 C18 C23 C22 1.6(7)
S1 C18 C23 C22 -173.9(4)
C21 C22 C23 C18 0.1(8)
C7 C8 C27 C28 -155.7(3)
C26 C8 C27 C28 -29.5(5)
C9 C8 C27 C28 95.5(4)
C7 C8 C27 C32 28.6(4)
C26 C8 C27 C32 154.8(3)
C9 C8 C27 C32 -80.2(4)
C32 C27 C28 C29 1.5(6)
C8 C27 C28 C29 -174.4(4)
C27 C28 C29 C30 0.4(7)
C28 C29 C30 C31 -1.6(8)
C29 C30 C31 C32 0.8(7)
C30 C31 C32 C27 1.3(7)
C28 C27 C32 C31 -2.4(6)
C8 C27 C32 C31 173.5(4)
N1 C9 C33 C34 154.1(3)
C10 C9 C33 C34 40.9(4)
C8 C9 C33 C34 -88.6(4)
N1 C9 C33 C38 -28.0(4)
C10 C9 C33 C38 -141.3(3)
C8 C9 C33 C38 89.2(4)
C38 C33 C34 C35 0.6(5)
C9 C33 C34 C35 178.5(3)
C33 C34 C35 C36 0.3(7)
C34 C35 C36 C37 -0.9(7)
C35 C36 C37 C38 0.5(7)
C36 C37 C38 C33 0.5(6)
C34 C33 C38 C37 -1.0(5)
C9 C33 C38 C37 -178.9(3)
C7 C2 N1 C1 -139.7(3)
C3 C2 N1 C1 42.0(5)
C7 C2 N1 C9 -22.9(3)
C3 C2 N1 C9 158.8(3)
N2 C1 N1 C2 89.2(3)
C11 C1 N1 C2 -149.0(3)
N2 C1 N1 C9 -26.5(3)
C11 C1 N1 C9 95.3(3)
C33 C9 N1 C2 155.3(3)
C10 C9 N1 C2 -84.1(3)
C8 C9 N1 C2 32.6(3)
C33 C9 N1 C1 -80.8(3)
C10 C9 N1 C1 39.8(3)
C8 C9 N1 C1 156.4(3)
C9 C10 N2 C1 22.3(3)
C9 C10 N2 S1 163.1(2)
N1 C1 N2 C10 2.0(4)
C11 C1 N2 C10 -119.4(3)
N1 C1 N2 S1 -138.9(2)
C11 C1 N2 S1 99.7(3)
C4 C5 O3 C25 173.2(5)
C6 C5 O3 C25 -7.9(7)
C10 N2 S1 O1 171.5(3)
C1 N2 S1 O1 -51.4(3)
C10 N2 S1 O2 42.3(3)
C1 N2 S1 O2 179.5(2)
C10 N2 S1 C18 -73.6(3)
C1 N2 S1 C18 63.6(3)
C23 C18 S1 O1 -164.3(3)
C19 C18 S1 O1 20.4(4)
C23 C18 S1 O2 -32.3(4)
C19 C18 S1 O2 152.3(3)
C23 C18 S1 N2 82.0(4)
C19 C18 S1 N2 -93.3(3)
