#------------------------------------------------------------------------------
#$Date: 2016-11-06 04:02:21 +0200 (Sun, 06 Nov 2016) $
#$Revision: 187960 $
#$URL: file:///home/coder/svn-repositories/cod/cif/1/54/37/1543768.cif $
#------------------------------------------------------------------------------
#
# This file is available in the Crystallography Open Database (COD),
# http://www.crystallography.net/
#
# All data on this site have been placed in the public domain by the
# contributors.
#
data_1543768
loop_
_publ_author_name
'Kalogirou, Andreas S.'
'Kourtellaris, Andreas'
'Koutentis, Panayiotis A.'
_publ_section_title
;
 The Acid and/or Thermal Mediated Ring Contraction of
 4H-1,2,6-Thiadiazines To Afford 1,2,5-Thiadiazoles.
;
_journal_issue                   16
_journal_name_full               'Organic letters'
_journal_page_first              4056
_journal_page_last               4059
_journal_paper_doi               10.1021/acs.orglett.6b01929
_journal_volume                  18
_journal_year                    2016
_chemical_formula_moiety         'C21 H12 N4 O6 S'
_chemical_formula_sum            'C21 H12 N4 O6 S'
_chemical_formula_weight         448.41
_chemical_name_systematic
; 
 ? 
;
_space_group_IT_number           4
_symmetry_cell_setting           monoclinic
_symmetry_space_group_name_Hall  'P 2yb'
_symmetry_space_group_name_H-M   'P 1 21 1'
_atom_sites_solution_hydrogens   geom
_atom_sites_solution_primary     direct
_atom_sites_solution_secondary   difmap
_audit_creation_method           SHELXL-97
_cell_angle_alpha                90.00
_cell_angle_beta                 93.738(3)
_cell_angle_gamma                90.00
_cell_formula_units_Z            2
_cell_length_a                   7.9088(2)
_cell_length_b                   13.4071(4)
_cell_length_c                   9.2050(3)
_cell_measurement_reflns_used    4299
_cell_measurement_temperature    293(2)
_cell_measurement_theta_max      72.1780
_cell_measurement_theta_min      5.5940
_cell_volume                     973.97(5)
_computing_cell_refinement       'CrysAlis RED'
_computing_data_collection       'CrysAlis CCD'
_computing_data_reduction        'CrysAlis RED'
_computing_molecular_graphics
;
 DIAMOND (Brandenburg, 2006)
 MERCURY (Bruno et al. 2002)
;
_computing_publication_material  'WINGX (Farrugia, 1999)'
_computing_structure_refinement  'SHELXL-97 (Sheldrick, 1997)'
_computing_structure_solution    'SHELXL-97 (Sheldrick, 1997)'
_diffrn_ambient_temperature      293(2)
_diffrn_detector_area_resol_mean 10.4223
_diffrn_measured_fraction_theta_full 0.999
_diffrn_measured_fraction_theta_max 0.999
_diffrn_measurement_device_type  'SuperNova, Dual, Cu at zero, Atlas'
_diffrn_measurement_method       '\w scans'
_diffrn_radiation_monochromator  mirror
_diffrn_radiation_source         'SuperNova (Cu) X-ray Source'
_diffrn_radiation_type           CuK\a
_diffrn_radiation_wavelength     1.54184
_diffrn_reflns_av_R_equivalents  0.0189
_diffrn_reflns_av_sigmaI/netI    0.0248
_diffrn_reflns_limit_h_max       9
_diffrn_reflns_limit_h_min       -8
_diffrn_reflns_limit_k_max       12
_diffrn_reflns_limit_k_min       -16
_diffrn_reflns_limit_l_max       10
_diffrn_reflns_limit_l_min       -10
_diffrn_reflns_number            5743
_diffrn_reflns_theta_full        67.00
_diffrn_reflns_theta_max         67.00
_diffrn_reflns_theta_min         5.61
_exptl_absorpt_coefficient_mu    1.927
_exptl_absorpt_correction_T_max  1.00000
_exptl_absorpt_correction_T_min  0.83602
_exptl_absorpt_correction_type   multi-scan
_exptl_absorpt_process_details
'Empirical absorption correction (CrysAlis RED, Oxford Diffraction)'
_exptl_crystal_colour            yellow
_exptl_crystal_density_diffrn    1.529
_exptl_crystal_density_method    'not measured'
_exptl_crystal_description       Polyhedral
_exptl_crystal_F_000             460
_exptl_crystal_size_max          0.08
_exptl_crystal_size_mid          0.05
_exptl_crystal_size_min          0.03
_refine_diff_density_max         0.199
_refine_diff_density_min         -0.278
_refine_diff_density_rms         0.048
_refine_ls_abs_structure_details 'Flack H D (1983), Acta Cryst. A39, 876-881'
_refine_ls_abs_structure_Flack   0.95(2)
_refine_ls_extinction_method     none
_refine_ls_goodness_of_fit_ref   1.025
_refine_ls_hydrogen_treatment    mixed
_refine_ls_matrix_type           full
_refine_ls_number_parameters     289
_refine_ls_number_reflns         2975
_refine_ls_number_restraints     1
_refine_ls_restrained_S_all      1.025
_refine_ls_R_factor_all          0.0427
_refine_ls_R_factor_gt           0.0420
_refine_ls_shift/su_max          0.001
_refine_ls_shift/su_mean         0.000
_refine_ls_structure_factor_coef Fsqd
_refine_ls_weighting_details
'calc w=1/[\s^2^(Fo^2^)+(0.0576P)^2^+1.2642P] where P=(Fo^2^+2Fc^2^)/3'
_refine_ls_weighting_scheme      calc
_refine_ls_wR_factor_gt          0.1065
_refine_ls_wR_factor_ref         0.1071
_reflns_number_gt                2916
_reflns_number_total             2975
_reflns_threshold_expression     >2sigma(I)
_cod_data_source_file            ol6b01929_si_002.cif
_cod_data_source_block           shelxl
_cod_depositor_comments
;
The following automatic conversions were performed:

'_symmetry_cell_setting' value 'Monoclinic' changed to 'monoclinic'
according to
/usr/data/users/saulius/crontab/automatic-downloads/rss-feeds/ACS/lib/dictionaries/cif_core.dic
dictionary named 'cif_core.dic' version 2.4.2 from 2011-04-26.

Automatic conversion script
Id: cif_fix_values 4268 2015-11-12 08:31:59Z antanas 

 Adding full bibliography for 1543767--1543769.cif.
;
_cod_original_sg_symbol_Hall     '-P 2yb'
_cod_original_sg_symbol_H-M      'P 21'
_cod_database_code               1543768
loop_
_symmetry_equiv_pos_as_xyz
'x, y, z'
'-x, y+1/2, -z'
loop_
_atom_site_label
_atom_site_type_symbol
_atom_site_fract_x
_atom_site_fract_y
_atom_site_fract_z
_atom_site_U_iso_or_equiv
_atom_site_adp_type
_atom_site_occupancy
_atom_site_symmetry_multiplicity
_atom_site_calc_flag
_atom_site_refinement_flags
S1 S 0.39025(10) 0.31346(7) 0.26021(8) 0.0220(2) Uani 1 1 d .
O1 O 0.4128(3) 0.11825(18) 0.5696(2) 0.0169(5) Uani 1 1 d .
O2 O 0.5993(3) 0.23208(18) 0.6818(2) 0.0169(5) Uani 1 1 d .
O3 O -0.1296(3) 0.3391(2) 1.0568(3) 0.0287(6) Uani 1 1 d .
O4 O 0.0705(3) 0.4405(2) 1.1288(3) 0.0351(7) Uani 1 1 d .
O5 O 1.2417(3) -0.08841(19) 0.4920(2) 0.0231(5) Uani 1 1 d .
O6 O 1.2930(3) -0.0098(2) 0.2944(3) 0.0291(6) Uani 1 1 d .
N1 N 0.5592(3) 0.2453(2) 0.2956(3) 0.0188(6) Uani 1 1 d .
N2 N 0.2973(3) 0.3314(2) 0.4132(3) 0.0194(6) Uani 1 1 d .
N3 N 0.0051(3) 0.3818(2) 1.0401(3) 0.0219(6) Uani 1 1 d .
N4 N 1.2078(3) -0.0250(2) 0.3995(3) 0.0204(6) Uani 1 1 d .
C1 C 0.4955(4) 0.2142(3) 0.5501(3) 0.0172(7) Uani 1 1 d .
C2 C 0.6037(4) 0.2068(3) 0.4204(3) 0.0169(6) Uani 1 1 d .
C3 C 0.3547(4) 0.2913(3) 0.5337(3) 0.0191(7) Uani 1 1 d .
C4 C 0.2632(4) 0.3168(3) 0.6663(3) 0.0177(6) Uani 1 1 d .
C5 C 0.3353(4) 0.3806(3) 0.7717(4) 0.0221(7) Uani 1 1 d .
H5 H 0.4417 0.4080 0.7604 0.027 Uiso 1 1 calc R
C6 C 0.2492(4) 0.4035(3) 0.8935(4) 0.0226(7) Uani 1 1 d .
H6 H 0.2958 0.4468 0.9641 0.027 Uiso 1 1 calc R
C7 C 0.0923(4) 0.3605(3) 0.9078(3) 0.0192(7) Uani 1 1 d .
C8 C 0.0159(4) 0.2979(3) 0.8034(4) 0.0233(7) Uani 1 1 d .
H8 H -0.0906 0.2708 0.8150 0.028 Uiso 1 1 calc R
C9 C 0.1027(4) 0.2770(3) 0.6810(4) 0.0238(8) Uani 1 1 d .
H9 H 0.0535 0.2361 0.6083 0.029 Uiso 1 1 calc R
C10 C 0.7649(4) 0.1490(3) 0.4285(3) 0.0174(7) Uani 1 1 d .
C11 C 0.8804(4) 0.1705(3) 0.3232(4) 0.0220(7) Uani 1 1 d .
H11 H 0.8585 0.2232 0.2590 0.026 Uiso 1 1 calc R
C12 C 1.0256(4) 0.1149(3) 0.3136(3) 0.0219(7) Uani 1 1 d .
H12 H 1.1011 0.1287 0.2430 0.026 Uiso 1 1 calc R
C13 C 1.0563(4) 0.0373(3) 0.4126(3) 0.0176(7) Uani 1 1 d .
C14 C 0.9485(4) 0.0161(3) 0.5206(3) 0.0190(7) Uani 1 1 d .
H14 H 0.9735 -0.0349 0.5869 0.023 Uiso 1 1 calc R
C15 C 0.8020(4) 0.0726(3) 0.5282(3) 0.0179(7) Uani 1 1 d .
H15 H 0.7281 0.0593 0.6004 0.022 Uiso 1 1 calc R
C17 C 0.4247(4) 0.1014(3) 0.7194(3) 0.0171(7) Uani 1 1 d .
C18 C 0.5349(4) 0.1694(3) 0.7855(3) 0.0169(7) Uani 1 1 d .
C19 C 0.5690(4) 0.1725(3) 0.9342(3) 0.0204(7) Uani 1 1 d .
H19 H 0.6432 0.2189 0.9785 0.025 Uiso 1 1 calc R
C20 C 0.4847(4) 0.1017(3) 1.0141(3) 0.0222(7) Uani 1 1 d .
H20 H 0.5026 0.1010 1.1149 0.027 Uiso 1 1 calc R
C21 C 0.3750(4) 0.0321(3) 0.9473(4) 0.0213(7) Uani 1 1 d .
H21 H 0.3225 -0.0144 1.0043 0.026 Uiso 1 1 calc R
C22 C 0.3417(4) 0.0305(3) 0.7955(4) 0.0202(7) Uani 1 1 d .
H22 H 0.2683 -0.0156 0.7496 0.024 Uiso 1 1 calc R
loop_
_atom_site_aniso_label
_atom_site_aniso_U_11
_atom_site_aniso_U_22
_atom_site_aniso_U_33
_atom_site_aniso_U_23
_atom_site_aniso_U_13
_atom_site_aniso_U_12
S1 0.0229(4) 0.0282(5) 0.0153(3) 0.0022(3) 0.0034(3) 0.0071(4)
O1 0.0183(10) 0.0177(12) 0.0145(10) -0.0002(9) 0.0015(8) -0.0035(9)
O2 0.0173(10) 0.0195(12) 0.0141(10) -0.0003(9) 0.0023(8) -0.0029(9)
O3 0.0272(12) 0.0295(16) 0.0309(12) 0.0036(11) 0.0145(10) -0.0019(11)
O4 0.0286(13) 0.0513(19) 0.0261(13) -0.0147(13) 0.0059(10) -0.0019(13)
O5 0.0254(12) 0.0221(13) 0.0218(11) 0.0011(11) 0.0009(9) 0.0052(10)
O6 0.0249(12) 0.0398(17) 0.0239(12) 0.0018(12) 0.0118(10) 0.0082(11)
N1 0.0185(12) 0.0205(15) 0.0177(13) -0.0010(12) 0.0030(10) -0.0003(12)
N2 0.0181(13) 0.0215(17) 0.0190(13) -0.0005(11) 0.0032(10) 0.0012(11)
N3 0.0223(14) 0.0254(17) 0.0184(14) 0.0011(12) 0.0050(11) 0.0057(12)
N4 0.0183(13) 0.0248(17) 0.0182(13) -0.0029(13) 0.0020(10) 0.0012(12)
C1 0.0180(15) 0.0197(19) 0.0140(14) 0.0006(13) 0.0012(12) -0.0051(14)
C2 0.0175(15) 0.0170(17) 0.0163(15) -0.0027(13) 0.0029(12) -0.0049(13)
C3 0.0152(14) 0.023(2) 0.0188(16) -0.0025(13) 0.0028(12) -0.0047(13)
C4 0.0170(13) 0.0183(17) 0.0181(14) 0.0017(15) 0.0022(11) 0.0027(14)
C5 0.0189(16) 0.0228(19) 0.0251(17) -0.0017(14) 0.0053(13) -0.0033(14)
C6 0.0207(16) 0.025(2) 0.0222(16) -0.0064(15) 0.0009(12) -0.0017(15)
C7 0.0172(15) 0.0239(18) 0.0170(15) 0.0027(13) 0.0039(12) 0.0050(13)
C8 0.0169(14) 0.029(2) 0.0245(16) -0.0029(15) 0.0054(12) -0.0029(14)
C9 0.0211(16) 0.029(2) 0.0216(17) -0.0053(14) 0.0020(13) -0.0026(14)
C10 0.0173(15) 0.0206(18) 0.0143(14) -0.0037(13) 0.0003(12) -0.0002(13)
C11 0.0223(16) 0.025(2) 0.0185(16) 0.0062(14) 0.0033(13) 0.0006(15)
C12 0.0200(15) 0.028(2) 0.0188(15) 0.0016(14) 0.0065(12) -0.0002(15)
C13 0.0161(14) 0.0197(18) 0.0168(14) -0.0036(13) 0.0007(11) 0.0009(13)
C14 0.0197(16) 0.0203(19) 0.0170(15) -0.0004(13) 0.0006(12) -0.0023(13)
C15 0.0164(15) 0.0218(18) 0.0162(15) -0.0008(13) 0.0050(12) -0.0025(13)
C17 0.0186(15) 0.0202(18) 0.0128(14) 0.0000(13) 0.0042(11) 0.0016(13)
C18 0.0154(14) 0.0186(18) 0.0172(15) 0.0012(13) 0.0040(12) 0.0006(13)
C19 0.0207(16) 0.0228(19) 0.0177(15) -0.0023(14) 0.0006(12) 0.0012(14)
C20 0.0264(16) 0.0261(19) 0.0142(15) 0.0018(14) 0.0021(12) 0.0037(14)
C21 0.0240(16) 0.0213(19) 0.0193(16) 0.0012(14) 0.0059(13) 0.0011(15)
C22 0.0186(15) 0.0230(19) 0.0190(16) 0.0005(14) 0.0017(12) -0.0023(14)
loop_
_atom_type_symbol
_atom_type_description
_atom_type_scat_dispersion_real
_atom_type_scat_dispersion_imag
_atom_type_scat_source
C C 0.0181 0.0091 'International Tables Vol C Tables 4.2.6.8 and 6.1.1.4'
H H 0.0000 0.0000 'International Tables Vol C Tables 4.2.6.8 and 6.1.1.4'
N N 0.0311 0.0180 'International Tables Vol C Tables 4.2.6.8 and 6.1.1.4'
O O 0.0492 0.0322 'International Tables Vol C Tables 4.2.6.8 and 6.1.1.4'
S S 0.3331 0.5567 'International Tables Vol C Tables 4.2.6.8 and 6.1.1.4'
loop_
_geom_angle_atom_site_label_1
_geom_angle_atom_site_label_2
_geom_angle_atom_site_label_3
_geom_angle
N1 S1 N2 108.43(14)
C17 O1 C1 105.2(2)
C18 O2 C1 105.2(2)
C2 N1 S1 125.0(2)
C3 N2 S1 121.5(2)
O4 N3 O3 123.3(3)
O4 N3 C7 118.5(3)
O3 N3 C7 118.2(3)
O5 N4 O6 123.9(3)
O5 N4 C13 118.8(3)
O6 N4 C13 117.4(3)
O2 C1 O1 106.2(2)
O2 C1 C2 110.7(2)
O1 C1 C2 108.6(3)
O2 C1 C3 110.2(3)
O1 C1 C3 106.3(2)
C2 C1 C3 114.4(3)
N1 C2 C10 115.9(3)
N1 C2 C1 122.8(3)
C10 C2 C1 121.3(3)
N2 C3 C4 116.4(3)
N2 C3 C1 125.8(3)
C4 C3 C1 117.6(3)
C5 C4 C9 120.3(3)
C5 C4 C3 120.8(3)
C9 C4 C3 118.9(3)
C6 C5 C4 120.1(3)
C6 C5 H5 120.0
C4 C5 H5 120.0
C7 C6 C5 118.5(3)
C7 C6 H6 120.7
C5 C6 H6 120.7
C6 C7 C8 122.7(3)
C6 C7 N3 118.2(3)
C8 C7 N3 119.1(3)
C7 C8 C9 118.0(3)
C7 C8 H8 121.0
C9 C8 H8 121.0
C8 C9 C4 120.3(3)
C8 C9 H9 119.9
C4 C9 H9 119.9
C15 C10 C11 119.2(3)
C15 C10 C2 123.9(3)
C11 C10 C2 116.8(3)
C12 C11 C10 121.0(3)
C12 C11 H11 119.5
C10 C11 H11 119.5
C11 C12 C13 118.2(3)
C11 C12 H12 120.9
C13 C12 H12 120.9
C14 C13 C12 122.3(3)
C14 C13 N4 119.1(3)
C12 C13 N4 118.6(3)
C13 C14 C15 118.7(3)
C13 C14 H14 120.6
C15 C14 H14 120.6
C14 C15 C10 120.5(3)
C14 C15 H15 119.8
C10 C15 H15 119.8
C22 C17 C18 122.9(3)
C22 C17 O1 127.8(3)
C18 C17 O1 109.3(3)
C17 C18 C19 122.5(3)
C17 C18 O2 110.3(3)
C19 C18 O2 127.3(3)
C18 C19 C20 115.6(3)
C18 C19 H19 122.2
C20 C19 H19 122.2
C21 C20 C19 122.0(3)
C21 C20 H20 119.0
C19 C20 H20 119.0
C20 C21 C22 121.4(3)
C20 C21 H21 119.3
C22 C21 H21 119.3
C17 C22 C21 115.6(3)
C17 C22 H22 122.2
C21 C22 H22 122.2
loop_
_geom_bond_atom_site_label_1
_geom_bond_atom_site_label_2
_geom_bond_distance
S1 N1 1.634(3)
S1 N2 1.648(3)
O1 C17 1.394(4)
O1 C1 1.459(4)
O2 C18 1.393(4)
O2 C1 1.439(3)
O3 N3 1.227(4)
O4 N3 1.224(4)
O5 N4 1.220(4)
O6 N4 1.231(4)
N1 C2 1.287(4)
N2 C3 1.288(4)
N3 C7 1.467(4)
N4 C13 1.473(4)
C1 C2 1.517(4)
C1 C3 1.520(5)
C2 C10 1.491(5)
C3 C4 1.499(4)
C4 C5 1.388(5)
C4 C9 1.391(5)
C5 C6 1.384(5)
C5 H5 0.9300
C6 C7 1.382(5)
C6 H6 0.9300
C7 C8 1.385(5)
C8 C9 1.386(4)
C8 H8 0.9300
C9 H9 0.9300
C10 C15 1.393(5)
C10 C11 1.405(4)
C11 C12 1.377(5)
C11 H11 0.9300
C12 C13 1.393(5)
C12 H12 0.9300
C13 C14 1.380(4)
C14 C15 1.390(5)
C14 H14 0.9300
C15 H15 0.9300
C17 C22 1.373(5)
C17 C18 1.376(5)
C18 C19 1.379(4)
C19 C20 1.397(5)
C19 H19 0.9300
C20 C21 1.390(5)
C20 H20 0.9300
C21 C22 1.405(4)
C21 H21 0.9300
C22 H22 0.9300
