#------------------------------------------------------------------------------
#$Date: 2016-11-02 04:35:01 +0200 (Wed, 02 Nov 2016) $
#$Revision: 187748 $
#$URL: file:///home/coder/svn-repositories/cod/cif/1/54/44/1544437.cif $
#------------------------------------------------------------------------------
#
# This file is available in the Crystallography Open Database (COD),
# http://www.crystallography.net/. The original data for this entry
# were provided by IUCr Journals, http://journals.iucr.org/.
#
# The file may be used within the scientific community so long as
# proper attribution is given to the journal article from which the
# data were obtained.
#
data_1544437
loop_
_publ_author_name
'de Oliveira, Gabriela Porto'
'Bresolin, Leandro'
'Nogueira, Vanessa Senna'
'Zambiazi, Priscila Jussiane'
'de Oliveira, Adriano Bof'
_publ_section_title
;
 4-Phenyl-1-[(1<i>R</i>,4<i>R</i>)-1,7,7-trimethyl-2-oxobicyclo[2.2.1]heptan-3-ylidene]hydrazinecarbothioamide
;
_journal_coeditor_code           BX4004
_journal_issue                   11
_journal_name_full               IUCrData
_journal_page_first              x161730
_journal_paper_doi               10.1107/S2414314616017302
_journal_volume                  1
_journal_year                    2016
_chemical_formula_iupac          'C17 H21 N3 O S'
_chemical_formula_moiety         'C17 H21 N3 O S'
_chemical_formula_sum            'C17 H21 N3 O S'
_chemical_formula_weight         315.43
_chemical_name_common            <i>R</i>-Camphor-4-phenylthiosemicarbazone
_chemical_name_systematic
4-Phenyl-1-[(1<i>R</i>,4<i>R</i>)-1,7,7-trimethyl-2-oxobicyclo[2.2.1]heptan-3-ylidene]hydrazinecarbothioamide
_space_group_IT_number           61
_symmetry_cell_setting           orthorhombic
_symmetry_space_group_name_Hall  '-P 2ac 2ab'
_symmetry_space_group_name_H-M   'P b c a'
_atom_sites_solution_hydrogens   geom
_atom_sites_solution_primary     direct
_atom_sites_solution_secondary   difmap
_audit_creation_method           SHELXL-97
_cell_angle_alpha                90.00
_cell_angle_beta                 90.00
_cell_angle_gamma                90.00
_cell_formula_units_Z            8
_cell_length_a                   11.7947(9)
_cell_length_b                   14.2221(11)
_cell_length_c                   18.7864(15)
_cell_measurement_reflns_used    9840
_cell_measurement_temperature    100(2)
_cell_measurement_theta_max      27.38
_cell_measurement_theta_min      2.49
_cell_volume                     3151.3(4)
_computing_cell_refinement
;
SAINT (Bruker, 2012)
;
_computing_data_collection
;
APEX2 (Bruker, 2012)
;
_computing_data_reduction
;
SAINT (Bruker, 2012)
;
_computing_molecular_graphics
;
DIAMOND (Brandenburg, 2006)
;
_computing_publication_material
;
<i>publCIF</i> (Westrip, 2010) and <i>enCIFer</i> (Allen <i>et al.</i>,
2004)
;
_computing_structure_refinement
;
SHELXL97 (Sheldrick, 2008)
;
_computing_structure_solution
;
SHELXS97 (Sheldrick, 2008)
;
_diffrn_ambient_temperature      100(2)
_diffrn_measured_fraction_theta_full 0.995
_diffrn_measured_fraction_theta_max 0.995
_diffrn_measurement_device_type  'Bruker APEXII CCD'
_diffrn_measurement_method       '\f and \w scans'
_diffrn_radiation_monochromator  graphite
_diffrn_radiation_type           MoK\a
_diffrn_radiation_wavelength     0.71073
_diffrn_reflns_av_R_equivalents  0.1052
_diffrn_reflns_av_sigmaI/netI    0.0411
_diffrn_reflns_limit_h_max       13
_diffrn_reflns_limit_h_min       -15
_diffrn_reflns_limit_k_max       18
_diffrn_reflns_limit_k_min       -19
_diffrn_reflns_limit_l_max       25
_diffrn_reflns_limit_l_min       -25
_diffrn_reflns_number            94152
_diffrn_reflns_theta_full        28.39
_diffrn_reflns_theta_max         28.39
_diffrn_reflns_theta_min         2.49
_diffrn_standards_number         0
_exptl_absorpt_coefficient_mu    0.211
_exptl_absorpt_correction_T_max  0.9723
_exptl_absorpt_correction_T_min  0.9556
_exptl_absorpt_correction_type   multi-scan
_exptl_absorpt_process_details
;
(SADABS; Bruker, 2012)
;
_exptl_crystal_colour            yellow
_exptl_crystal_density_diffrn    1.330
_exptl_crystal_density_method    'not measured'
_exptl_crystal_description       Block
_exptl_crystal_F_000             1344
_exptl_crystal_size_max          0.217
_exptl_crystal_size_mid          0.20
_exptl_crystal_size_min          0.134
_refine_diff_density_max         0.372
_refine_diff_density_min         -0.272
_refine_ls_extinction_method     none
_refine_ls_goodness_of_fit_ref   1.084
_refine_ls_hydrogen_treatment    constr
_refine_ls_matrix_type           full
_refine_ls_number_parameters     202
_refine_ls_number_reflns         3933
_refine_ls_number_restraints     0
_refine_ls_restrained_S_all      1.084
_refine_ls_R_factor_all          0.0842
_refine_ls_R_factor_gt           0.0505
_refine_ls_shift/su_max          0.000
_refine_ls_shift/su_mean         0.000
_refine_ls_structure_factor_coef Fsqd
_refine_ls_weighting_details
'calc w=1/[\s^2^(Fo^2^)+(0.0310P)^2^+3.2431P] where P=(Fo^2^+2Fc^2^)/3'
_refine_ls_weighting_scheme      calc
_refine_ls_wR_factor_gt          0.0959
_refine_ls_wR_factor_ref         0.1079
_reflns_number_gt                2879
_reflns_number_total             3933
_reflns_threshold_expression     >2sigma(I)
_iucr_refine_instructions_details
;
TITL Pbca in Pbca
CELL  0.71073  11.7947  14.2221  18.7864   90.000   90.000   90.000
ZERR     8.00   0.0009   0.0011   0.0015    0.000    0.000    0.000
LATT  1
SYMM  1/2 + X, 1/2 - Y, - Z
SYMM  - X, 1/2 + Y, 1/2 - Z
SYMM  1/2 - X, - Y, 1/2 + Z
SFAC  C    H    N    O    S
UNIT  136  168  24   8    8
MERG   2
ACTA
BOND   $H
CONF
SIZE   0.134   0.200   0.217
FMAP   2
PLAN   50
L.S.   10
TEMP  -173.17
HTAB N2 O1
HTAB N3 N1
MPLA C12 C13 C14 C15 C16 C17
MPLA N1 N2 N3 C11 S1
WGHT    0.031000    3.243100
FVAR       0.13344
C1    1    0.719111   -0.040078    0.444216    11.00000    0.01742    0.02099 =
         0.01831    0.00052   -0.00132    0.00093
C2    1    0.753196   -0.141118    0.437089    11.00000    0.01671    0.02158 =
         0.01761   -0.00052    0.00019    0.00069
C3    1    0.679011   -0.180219    0.378396    11.00000    0.02289    0.02051 =
         0.02207   -0.00356   -0.00376    0.00156
C4    1    0.724861   -0.130554    0.309377    11.00000    0.02006    0.03468 =
         0.01867   -0.00264    0.00005    0.00030
AFIX  23
H1    2    0.808469   -0.135466    0.306572    11.00000   -1.20000
H2    2    0.691508   -0.159206    0.266156    11.00000   -1.20000
AFIX   0
C5    1    0.687914   -0.027440    0.316810    11.00000    0.02047    0.02939 =
         0.02005    0.00305   -0.00172   -0.00576
AFIX  23
H3    2    0.635606   -0.009140    0.277995    11.00000   -1.20000
H4    2    0.754218    0.015244    0.316524    11.00000   -1.20000
AFIX   0
C6    1    0.626771   -0.025770    0.390399    11.00000    0.01863    0.02209 =
         0.02236   -0.00258   -0.00365    0.00166
AFIX  13
H5    2    0.576120    0.029461    0.398998    11.00000   -1.20000
AFIX   0
C7    1    0.568064   -0.123182    0.392412    11.00000    0.01979    0.02255 =
         0.02140    0.00116   -0.00098   -0.00122
C8    1    0.514815   -0.144726    0.464684    11.00000    0.01983    0.03872 =
         0.02276    0.00224    0.00172   -0.00437
AFIX 137
H6    2    0.449829   -0.103045    0.472488    11.00000   -1.50000
H7    2    0.571081   -0.134651    0.502303    11.00000   -1.50000
H8    2    0.489361   -0.210307    0.465645    11.00000   -1.50000
AFIX   0
C9    1    0.478841   -0.137011    0.334355    11.00000    0.02176    0.02762 =
         0.02918    0.00026   -0.00559   -0.00312
AFIX 137
H9    2    0.456614   -0.203362    0.332511    11.00000   -1.50000
H10   2    0.510468   -0.118210    0.288264    11.00000   -1.50000
H11   2    0.412228   -0.098329    0.345061    11.00000   -1.50000
AFIX   0
C10   1    0.675000   -0.285516    0.375392    11.00000    0.03575    0.01963 =
         0.03048   -0.00223   -0.00827    0.00020
AFIX 137
H12   2    0.752177   -0.310306    0.370785    11.00000   -1.50000
H13   2    0.629727   -0.305280    0.334289    11.00000   -1.50000
H14   2    0.640473   -0.309785    0.419138    11.00000   -1.50000
AFIX   0
C11   1    0.887492    0.056965    0.579681    11.00000    0.01575    0.02187 =
         0.01675   -0.00110    0.00208   -0.00241
C12   1    0.865092    0.223416    0.619702    11.00000    0.01992    0.01847 =
         0.01610    0.00080    0.00069   -0.00156
C13   1    0.777147    0.287126    0.629384    11.00000    0.01697    0.02474 =
         0.01956    0.00183   -0.00150   -0.00001
AFIX  43
H15   2    0.705056    0.274990    0.608788    11.00000   -1.20000
AFIX   0
C14   1    0.793787    0.368009    0.668754    11.00000    0.02366    0.02341 =
         0.02381    0.00069    0.00159    0.00336
AFIX  43
H17   2    0.733374    0.411406    0.675016    11.00000   -1.20000
AFIX   0
C15   1    0.898685    0.385744    0.699085    11.00000    0.03062    0.02031 =
         0.02093   -0.00155    0.00114   -0.00293
AFIX  43
H18   2    0.910262    0.440765    0.726822    11.00000   -1.20000
AFIX   0
C16   1    0.986363    0.322758    0.688673    11.00000    0.02016    0.02597 =
         0.02485    0.00022   -0.00273   -0.00493
AFIX  43
H19   2    1.058260    0.334880    0.709539    11.00000   -1.20000
AFIX   0
C17   1    0.971108    0.242244    0.648307    11.00000    0.01634    0.02266 =
         0.02409   -0.00035    0.00031   -0.00030
AFIX  43
H20   2    1.032568    0.200385    0.640302    11.00000   -1.20000
AFIX   0
N1    3    0.757148    0.022683    0.487087    11.00000    0.01605    0.02262 =
         0.01927   -0.00023   -0.00312    0.00054
N2    3    0.842973   -0.004352    0.531377    11.00000    0.01857    0.01946 =
         0.01996   -0.00207   -0.00413    0.00263
AFIX  43
H21   2    0.869843   -0.061969    0.528719    11.00000   -1.20000
AFIX   0
N3    3    0.842395    0.143510    0.576702    11.00000    0.01867    0.02107 =
         0.02035   -0.00267   -0.00569    0.00061
AFIX  43
H22   2    0.791272    0.151970    0.543191    11.00000   -1.20000
AFIX   0
O1    4    0.825107   -0.181920    0.471991    11.00000    0.02171    0.02398 =
         0.02111    0.00002   -0.00302    0.00562
S1    5    0.986733    0.015578    0.634847    11.00000    0.01922    0.02413 =
         0.02302    0.00026   -0.00591    0.00016
HKLF 4  1.0  1.00  0.00  0.00  0.00  1.00  0.00  0.00  0.00  1.00
REM  Pbca in Pbca
REM R1 =  0.0505 for   2879 Fo > 4sig(Fo)  and  0.0842 for all   3933 data
REM    202 parameters refined using      0 restraints
END
WGHT      0.0310      3.2429
REM Highest difference peak  0.372,  deepest hole -0.272,  1-sigma level  0.060
Q1    1   0.6164 -0.1146  0.3502  11.00000  0.05    0.37
Q2    1   0.7096 -0.0776  0.3091  11.00000  0.05    0.31
Q3    1   0.7784  0.3122  0.6634  11.00000  0.05    0.30
Q4    1   0.5484 -0.2136  0.4508  11.00000  0.05    0.29
Q5    1   0.5814 -0.0607  0.4183  11.00000  0.05    0.27
Q6    1   0.9646 -0.0511  0.6370  11.00000  0.05    0.27
Q7    1   0.7492 -0.0850  0.4373  11.00000  0.05    0.26
Q8    1   0.8606  0.1768  0.6093  11.00000  0.05    0.26
Q9    1   0.8435  0.3679  0.6883  11.00000  0.05    0.25
Q10   1   0.6772 -0.0248  0.4170  11.00000  0.05    0.25
Q11   1   0.5218 -0.1275  0.3602  11.00000  0.05    0.24
Q12   1   0.9172  0.2294  0.6352  11.00000  0.05    0.23
Q13   1   0.5226 -0.0768  0.4633  11.00000  0.05    0.23
Q14   1   0.9718  0.2685  0.6794  11.00000  0.05    0.22
Q15   1   0.7098 -0.1584  0.4092  11.00000  0.05    0.21
Q16   1   0.6537  0.1979  0.5893  11.00000  0.05    0.21
Q17   1   0.9842  0.0811  0.6424  11.00000  0.05    0.20
Q18   1   0.7776  0.3919  0.6664  11.00000  0.05    0.20
Q19   1   0.9849  0.2923  0.6419  11.00000  0.05    0.19
Q20   1   0.8338  0.2722  0.6164  11.00000  0.05    0.19
Q21   1   0.8795  0.4280  0.7751  11.00000  0.05    0.19
Q22   1   0.7955 -0.2479  0.4675  11.00000  0.05    0.19
Q23   1   0.4765 -0.2672  0.3764  11.00000  0.05    0.19
Q24   1   0.6616 -0.0322  0.3512  11.00000  0.05    0.19
Q25   1   0.9772  0.0791  0.6776  11.00000  0.05    0.18
Q26   1   0.6198  0.4165  0.6463  11.00000  0.05    0.18
Q27   1   0.5859  0.0910  0.4262  11.00000  0.05    0.18
Q28   1   0.3738 -0.1426  0.5303  11.00000  0.05    0.18
Q29   1   0.9433 -0.2009  0.4764  11.00000  0.05    0.18
Q30   1   0.9167  0.0821  0.6913  11.00000  0.05    0.18
Q31   1   0.8521  0.1002  0.5861  11.00000  0.05    0.18
Q32   1   0.7981  0.3458  0.6340  11.00000  0.05    0.18
Q33   1   0.6021  0.2783  0.6385  11.00000  0.05    0.18
Q34   1   0.6230 -0.1570  0.3840  11.00000  0.05    0.17
Q35   1   0.6206 -0.1809  0.5238  11.00000  0.05    0.17
Q36   1   0.7288  0.2842  0.7007  11.00000  0.05    0.17
Q37   1   0.6133  0.0480  0.3974  11.00000  0.05    0.17
Q38   1   0.8182  0.2484  0.6308  11.00000  0.05    0.17
Q39   1   0.7192 -0.3450  0.4073  11.00000  0.05    0.17
Q40   1   0.8104  0.0906  0.3566  11.00000  0.05    0.17
Q41   1   1.0388 -0.0585  0.6178  11.00000  0.05    0.17
Q42   1   0.9302  0.3403  0.7037  11.00000  0.05    0.17
Q43   1   0.7056 -0.0322  0.4769  11.00000  0.05    0.17
Q44   1   0.8867  0.2505  0.5525  11.00000  0.05    0.17
Q45   1   0.6380 -0.2045  0.4089  11.00000  0.05    0.16
Q46   1   0.9720  0.1767  0.7025  11.00000  0.05    0.16
Q47   1   0.7410  0.0766  0.5006  11.00000  0.05    0.16
Q48   1   0.8238  0.0737  0.4164  11.00000  0.05    0.16
Q49   1   0.6992 -0.0833  0.5574  11.00000  0.05    0.16
Q50   1   0.4813 -0.2538  0.4231  11.00000  0.05    0.16
;
_cod_data_source_file            bx4004sup1.cif
_cod_data_source_block           I
_cod_database_code               1544437
loop_
_symmetry_equiv_pos_as_xyz
'x, y, z'
'x+1/2, -y+1/2, -z'
'-x, y+1/2, -z+1/2'
'-x+1/2, -y, z+1/2'
'-x, -y, -z'
'-x-1/2, y-1/2, z'
'x, -y-1/2, z-1/2'
'x-1/2, y, -z-1/2'
loop_
_atom_site_type_symbol
_atom_site_label
_atom_site_fract_x
_atom_site_fract_y
_atom_site_fract_z
_atom_site_U_iso_or_equiv
_atom_site_adp_type
_atom_site_calc_flag
_atom_site_refinement_flags
_atom_site_occupancy
_atom_site_symmetry_multiplicity
C C1 0.71911(16) -0.04008(13) 0.44422(10) 0.0189(4) Uani d . 1 1
C C2 0.75320(16) -0.14112(13) 0.43709(10) 0.0186(4) Uani d . 1 1
C C3 0.67901(17) -0.18022(14) 0.37840(10) 0.0218(4) Uani d . 1 1
C C4 0.72486(17) -0.13055(15) 0.30938(10) 0.0245(4) Uani d . 1 1
H H1 0.8085 -0.1355 0.3066 0.029 Uiso calc R 1 1
H H2 0.6915 -0.1592 0.2662 0.029 Uiso calc R 1 1
C C5 0.68791(17) -0.02744(15) 0.31681(10) 0.0233(4) Uani d . 1 1
H H3 0.6356 -0.0091 0.2780 0.028 Uiso calc R 1 1
H H4 0.7542 0.0152 0.3165 0.028 Uiso calc R 1 1
C C6 0.62677(16) -0.02577(14) 0.39040(10) 0.0210(4) Uani d . 1 1
H H5 0.5761 0.0295 0.3990 0.025 Uiso calc R 1 1
C C7 0.56806(16) -0.12318(14) 0.39241(10) 0.0212(4) Uani d . 1 1
C C8 0.51481(18) -0.14473(16) 0.46468(10) 0.0271(5) Uani d . 1 1
H H6 0.4498 -0.1030 0.4725 0.041 Uiso calc R 1 1
H H7 0.5711 -0.1347 0.5023 0.041 Uiso calc R 1 1
H H8 0.4894 -0.2103 0.4656 0.041 Uiso calc R 1 1
C C9 0.47884(17) -0.13701(15) 0.33435(11) 0.0262(4) Uani d . 1 1
H H9 0.4566 -0.2034 0.3325 0.039 Uiso calc R 1 1
H H10 0.5105 -0.1182 0.2883 0.039 Uiso calc R 1 1
H H11 0.4122 -0.0983 0.3451 0.039 Uiso calc R 1 1
C C10 0.67500(19) -0.28552(14) 0.37539(11) 0.0286(5) Uani d . 1 1
H H12 0.7522 -0.3103 0.3708 0.043 Uiso calc R 1 1
H H13 0.6297 -0.3053 0.3343 0.043 Uiso calc R 1 1
H H14 0.6405 -0.3098 0.4191 0.043 Uiso calc R 1 1
C C11 0.88749(15) 0.05697(13) 0.57968(10) 0.0181(4) Uani d . 1 1
C C12 0.86509(16) 0.22342(13) 0.61970(9) 0.0182(4) Uani d . 1 1
C C13 0.77715(16) 0.28713(14) 0.62938(10) 0.0204(4) Uani d . 1 1
H H15 0.7051 0.2750 0.6088 0.025 Uiso calc R 1 1
C C14 0.79379(17) 0.36801(14) 0.66875(10) 0.0236(4) Uani d . 1 1
H H17 0.7334 0.4114 0.6750 0.028 Uiso calc R 1 1
C C15 0.89868(18) 0.38574(14) 0.69908(10) 0.0240(4) Uani d . 1 1
H H18 0.9103 0.4408 0.7268 0.029 Uiso calc R 1 1
C C16 0.98636(17) 0.32276(14) 0.68867(10) 0.0237(4) Uani d . 1 1
H H19 1.0583 0.3349 0.7095 0.028 Uiso calc R 1 1
C C17 0.97111(16) 0.24224(14) 0.64831(10) 0.0210(4) Uani d . 1 1
H H20 1.0326 0.2004 0.6403 0.025 Uiso calc R 1 1
N N1 0.75715(13) 0.02268(11) 0.48709(8) 0.0193(3) Uani d . 1 1
N N2 0.84297(13) -0.00435(11) 0.53138(8) 0.0193(3) Uani d . 1 1
H H21 0.8698 -0.0620 0.5287 0.023 Uiso calc R 1 1
N N3 0.84240(13) 0.14351(11) 0.57670(8) 0.0200(3) Uani d . 1 1
H H22 0.7913 0.1520 0.5432 0.024 Uiso calc R 1 1
O O1 0.82511(11) -0.18192(9) 0.47199(7) 0.0223(3) Uani d . 1 1
S S1 0.98673(4) 0.01558(4) 0.63485(3) 0.02212(13) Uani d . 1 1
loop_
_atom_site_aniso_label
_atom_site_aniso_U_11
_atom_site_aniso_U_22
_atom_site_aniso_U_33
_atom_site_aniso_U_12
_atom_site_aniso_U_13
_atom_site_aniso_U_23
C1 0.0174(9) 0.0210(10) 0.0183(9) 0.0009(7) -0.0013(7) 0.0005(7)
C2 0.0167(9) 0.0216(10) 0.0176(9) 0.0007(8) 0.0002(8) -0.0005(7)
C3 0.0229(10) 0.0205(10) 0.0221(10) 0.0016(8) -0.0038(8) -0.0036(8)
C4 0.0201(10) 0.0347(12) 0.0187(9) 0.0003(9) 0.0001(8) -0.0026(8)
C5 0.0205(10) 0.0294(11) 0.0201(9) -0.0058(8) -0.0017(8) 0.0031(8)
C6 0.0186(9) 0.0221(10) 0.0224(9) 0.0017(8) -0.0037(8) -0.0026(8)
C7 0.0198(10) 0.0225(10) 0.0214(10) -0.0012(8) -0.0010(8) 0.0012(8)
C8 0.0198(10) 0.0387(12) 0.0228(10) -0.0044(9) 0.0017(8) 0.0022(9)
C9 0.0218(10) 0.0276(11) 0.0292(11) -0.0031(9) -0.0056(9) 0.0003(8)
C10 0.0357(12) 0.0196(10) 0.0305(11) 0.0002(9) -0.0083(9) -0.0022(9)
C11 0.0158(9) 0.0219(10) 0.0167(9) -0.0024(7) 0.0021(7) -0.0011(7)
C12 0.0199(9) 0.0185(9) 0.0161(9) -0.0016(7) 0.0007(7) 0.0008(7)
C13 0.0170(10) 0.0247(10) 0.0196(9) 0.0000(7) -0.0015(7) 0.0018(8)
C14 0.0237(10) 0.0234(10) 0.0238(10) 0.0034(8) 0.0016(8) 0.0007(8)
C15 0.0306(11) 0.0203(10) 0.0209(10) -0.0029(8) 0.0011(8) -0.0015(8)
C16 0.0202(10) 0.0260(11) 0.0249(10) -0.0049(8) -0.0027(8) 0.0002(8)
C17 0.0163(9) 0.0227(10) 0.0241(10) -0.0003(8) 0.0003(7) -0.0003(8)
N1 0.0161(8) 0.0226(9) 0.0193(8) 0.0005(7) -0.0031(6) -0.0002(7)
N2 0.0186(8) 0.0195(8) 0.0200(8) 0.0026(6) -0.0041(6) -0.0021(6)
N3 0.0187(8) 0.0211(8) 0.0204(8) 0.0006(7) -0.0057(6) -0.0027(6)
O1 0.0217(7) 0.0240(7) 0.0211(7) 0.0056(6) -0.0030(6) 0.0000(6)
S1 0.0192(2) 0.0241(2) 0.0230(2) 0.0002(2) -0.00591(19) 0.00026(19)
loop_
_atom_type_symbol
_atom_type_description
_atom_type_scat_dispersion_real
_atom_type_scat_dispersion_imag
_atom_type_scat_source
C C 0.0033 0.0016 'International Tables Vol C Tables 4.2.6.8 and 6.1.1.4'
H H 0.0000 0.0000 'International Tables Vol C Tables 4.2.6.8 and 6.1.1.4'
N N 0.0061 0.0033 'International Tables Vol C Tables 4.2.6.8 and 6.1.1.4'
O O 0.0106 0.0060 'International Tables Vol C Tables 4.2.6.8 and 6.1.1.4'
S S 0.1246 0.1234 'International Tables Vol C Tables 4.2.6.8 and 6.1.1.4'
loop_
_geom_angle_atom_site_label_1
_geom_angle_atom_site_label_2
_geom_angle_atom_site_label_3
_geom_angle
N1 C1 C2 129.01(17)
N1 C1 C6 125.63(17)
C2 C1 C6 105.35(16)
O1 C2 C1 126.53(17)
O1 C2 C3 128.26(18)
C1 C2 C3 105.21(15)
C10 C3 C2 114.37(17)
C10 C3 C7 119.91(18)
C2 C3 C7 99.83(15)
C10 C3 C4 115.37(17)
C2 C3 C4 103.70(15)
C7 C3 C4 101.18(15)
C5 C4 C3 104.85(15)
C5 C4 H1 110.8
C3 C4 H1 110.8
C5 C4 H2 110.8
C3 C4 H2 110.8
H1 C4 H2 108.9
C4 C5 C6 103.08(15)
C4 C5 H3 111.1
C6 C5 H3 111.1
C4 C5 H4 111.1
C6 C5 H4 111.1
H3 C5 H4 109.1
C1 C6 C7 100.76(15)
C1 C6 C5 105.05(15)
C7 C6 C5 102.40(15)
C1 C6 H5 115.6
C7 C6 H5 115.6
C5 C6 H5 115.6
C8 C7 C9 109.00(16)
C8 C7 C6 112.64(16)
C9 C7 C6 113.92(16)
C8 C7 C3 112.97(16)
C9 C7 C3 112.94(16)
C6 C7 C3 94.92(15)
C7 C8 H6 109.5
C7 C8 H7 109.5
H6 C8 H7 109.5
C7 C8 H8 109.5
H6 C8 H8 109.5
H7 C8 H8 109.5
C7 C9 H9 109.5
C7 C9 H10 109.5
H9 C9 H10 109.5
C7 C9 H11 109.5
H9 C9 H11 109.5
H10 C9 H11 109.5
C3 C10 H12 109.5
C3 C10 H13 109.5
H12 C10 H13 109.5
C3 C10 H14 109.5
H12 C10 H14 109.5
H13 C10 H14 109.5
N3 C11 N2 113.96(16)
N3 C11 S1 128.81(15)
N2 C11 S1 117.21(14)
C17 C12 C13 119.77(17)
C17 C12 N3 123.02(17)
C13 C12 N3 117.11(17)
C14 C13 C12 120.47(18)
C14 C13 H15 119.8
C12 C13 H15 119.8
C13 C14 C15 119.91(19)
C13 C14 H17 120.0
C15 C14 H17 120.0
C16 C15 C14 119.48(19)
C16 C15 H18 120.3
C14 C15 H18 120.3
C15 C16 C17 121.07(19)
C15 C16 H19 119.5
C17 C16 H19 119.5
C16 C17 C12 119.26(18)
C16 C17 H20 120.4
C12 C17 H20 120.4
C1 N1 N2 116.47(16)
C11 N2 N1 120.72(15)
C11 N2 H21 119.6
N1 N2 H21 119.6
C11 N3 C12 129.47(16)
C11 N3 H22 115.3
C12 N3 H22 115.3
loop_
_geom_bond_atom_site_label_1
_geom_bond_atom_site_label_2
_geom_bond_distance
C1 N1 1.283(2)
C1 C2 1.498(3)
C1 C6 1.500(3)
C2 O1 1.219(2)
C2 C3 1.513(3)
C3 C10 1.499(3)
C3 C7 1.562(3)
C3 C4 1.572(3)
C4 C5 1.536(3)
C4 H1 0.9900
C4 H2 0.9900
C5 C6 1.559(3)
C5 H3 0.9900
C5 H4 0.9900
C6 C7 1.549(3)
C6 H5 1.0000
C7 C8 1.527(3)
C7 C9 1.528(3)
C8 H6 0.9800
C8 H7 0.9800
C8 H8 0.9800
C9 H9 0.9800
C9 H10 0.9800
C9 H11 0.9800
C10 H12 0.9800
C10 H13 0.9800
C10 H14 0.9800
C11 N3 1.342(2)
C11 N2 1.364(2)
C11 S1 1.6705(19)
C12 C17 1.387(3)
C12 C13 1.389(3)
C12 N3 1.420(2)
C13 C14 1.382(3)
C13 H15 0.9500
C14 C15 1.385(3)
C14 H17 0.9500
C15 C16 1.382(3)
C15 H18 0.9500
C16 C17 1.385(3)
C16 H19 0.9500
C17 H20 0.9500
N1 N2 1.366(2)
N2 H21 0.8800
N3 H22 0.8800
loop_
_geom_hbond_atom_site_label_D
_geom_hbond_atom_site_label_H
_geom_hbond_atom_site_label_A
_geom_hbond_distance_DH
_geom_hbond_distance_HA
_geom_hbond_distance_DA
_geom_hbond_angle_DHA
N2 H21 O1 0.88 2.08 2.769(2) 134.6
N3 H22 N1 0.88 2.16 2.607(2) 111.2
loop_
_geom_torsion_atom_site_label_1
_geom_torsion_atom_site_label_2
_geom_torsion_atom_site_label_3
_geom_torsion_atom_site_label_4
_geom_torsion
N1 C1 C2 O1 0.0(3)
C6 C1 C2 O1 -178.98(18)
N1 C1 C2 C3 179.61(19)
C6 C1 C2 C3 0.60(19)
O1 C2 C3 C10 15.6(3)
C1 C2 C3 C10 -163.93(17)
O1 C2 C3 C7 145.0(2)
C1 C2 C3 C7 -34.58(18)
O1 C2 C3 C4 -110.8(2)
C1 C2 C3 C4 69.58(18)
C10 C3 C4 C5 163.66(17)
C2 C3 C4 C5 -70.49(18)
C7 C3 C4 C5 32.65(18)
C3 C4 C5 C6 1.47(19)
N1 C1 C6 C7 -145.01(19)
C2 C1 C6 C7 34.04(18)
N1 C1 C6 C5 108.9(2)
C2 C1 C6 C5 -72.07(18)
C4 C5 C6 C1 69.27(18)
C4 C5 C6 C7 -35.63(18)
C1 C6 C7 C8 63.84(19)
C5 C6 C7 C8 172.04(16)
C1 C6 C7 C9 -171.36(16)
C5 C6 C7 C9 -63.2(2)
C1 C6 C7 C3 -53.57(16)
C5 C6 C7 C3 54.63(16)
C10 C3 C7 C8 62.0(2)
C2 C3 C7 C8 -63.6(2)
C4 C3 C7 C8 -169.85(16)
C10 C3 C7 C9 -62.3(2)
C2 C3 C7 C9 172.08(16)
C4 C3 C7 C9 65.87(19)
C10 C3 C7 C6 179.16(17)
C2 C3 C7 C6 53.51(16)
C4 C3 C7 C6 -52.71(16)
C17 C12 C13 C14 -1.6(3)
N3 C12 C13 C14 -178.03(17)
C12 C13 C14 C15 -0.2(3)
C13 C14 C15 C16 1.0(3)
C14 C15 C16 C17 0.1(3)
C15 C16 C17 C12 -1.9(3)
C13 C12 C17 C16 2.6(3)
N3 C12 C17 C16 178.86(17)
C2 C1 N1 N2 2.1(3)
C6 C1 N1 N2 -179.05(17)
N3 C11 N2 N1 -2.4(2)
S1 C11 N2 N1 176.39(13)
C1 N1 N2 C11 -178.80(17)
N2 C11 N3 C12 177.82(17)
S1 C11 N3 C12 -0.8(3)
C17 C12 N3 C11 33.0(3)
C13 C12 N3 C11 -150.65(19)

_cod_database_fobs_code 1544437
