#------------------------------------------------------------------------------
#$Date: 2017-03-04 14:59:25 +0200 (Sat, 04 Mar 2017) $
#$Revision: 193381 $
#$URL: file:///home/coder/svn-repositories/cod/cif/1/54/54/1545462.cif $
#------------------------------------------------------------------------------
#
# This file is available in the Crystallography Open Database (COD),
# http://www.crystallography.net/
#
# All data on this site have been placed in the public domain by the
# contributors.
#
data_1545462
loop_
_publ_author_name
'Guo, Dong-Dong'
'Li, Bin'
'Wang, Da-Yu'
'Gao, Ya-Ru'
'Guo, Shi-Huan'
'Pan, Gao-Fei'
'Wang, Yong-Qiang'
_publ_section_title
;
 Synthesis of 6H-Benzo[c]chromenes via Palladium-Catalyzed Intramolecular
 Dehydrogenative Coupling of Two Aryl C-H Bonds.
;
_journal_issue                   4
_journal_name_full               'Organic letters'
_journal_page_first              798
_journal_page_last               801
_journal_paper_doi               10.1021/acs.orglett.6b03763
_journal_volume                  19
_journal_year                    2017
_chemical_formula_moiety         'C18 H12 Br N O4 S'
_chemical_formula_sum            'C18 H12 Br N O4 S'
_chemical_formula_weight         418.26
_chemical_name_systematic
; 
 ? 
;
_space_group_IT_number           14
_symmetry_cell_setting           monoclinic
_symmetry_space_group_name_Hall  '-P 2yn'
_symmetry_space_group_name_H-M   'P 1 21/n 1'
_atom_sites_solution_hydrogens   geom
_atom_sites_solution_primary     direct
_atom_sites_solution_secondary   difmap
_audit_creation_method           SHELXL-97
_cell_angle_alpha                90.00
_cell_angle_beta                 91.287(10)
_cell_angle_gamma                90.00
_cell_formula_units_Z            4
_cell_length_a                   8.907(5)
_cell_length_b                   17.185(11)
_cell_length_c                   11.076(7)
_cell_measurement_reflns_used    2098
_cell_measurement_temperature    296(2)
_cell_measurement_theta_max      23.85
_cell_measurement_theta_min      2.19
_cell_volume                     1694.9(18)
_computing_cell_refinement       'Bruker SAINT'
_computing_data_collection       'Bruker APEX2'
_computing_data_reduction        'Bruker SAINT'
_computing_molecular_graphics    'Bruker SHELXTL'
_computing_publication_material  'Bruker SHELXTL'
_computing_structure_refinement  'SHELXL-97 (Sheldrick, 1997)'
_computing_structure_solution    'SHELXS-97 (Sheldrick, 1990)'
_diffrn_ambient_temperature      296(2)
_diffrn_measured_fraction_theta_full 0.996
_diffrn_measured_fraction_theta_max 0.996
_diffrn_measurement_device_type  'Bruker APEX-II CCD'
_diffrn_measurement_method       '\f and \w scans'
_diffrn_radiation_monochromator  graphite
_diffrn_radiation_source         'fine-focus sealed tube'
_diffrn_radiation_type           MoK\a
_diffrn_radiation_wavelength     0.71073
_diffrn_reflns_av_R_equivalents  0.0708
_diffrn_reflns_av_sigmaI/netI    0.0891
_diffrn_reflns_limit_h_max       10
_diffrn_reflns_limit_h_min       -10
_diffrn_reflns_limit_k_max       20
_diffrn_reflns_limit_k_min       -20
_diffrn_reflns_limit_l_max       8
_diffrn_reflns_limit_l_min       -13
_diffrn_reflns_number            7885
_diffrn_reflns_theta_full        25.10
_diffrn_reflns_theta_max         25.10
_diffrn_reflns_theta_min         2.19
_exptl_absorpt_coefficient_mu    2.571
_exptl_absorpt_correction_T_max  0.6959
_exptl_absorpt_correction_T_min  0.4513
_exptl_absorpt_correction_type   multi-scan
_exptl_absorpt_process_details   'SADABS(Sheldrick, 1996)'
_exptl_crystal_colour            colorless
_exptl_crystal_density_diffrn    1.639
_exptl_crystal_density_method    'not measured'
_exptl_crystal_description       block
_exptl_crystal_F_000             840
_exptl_crystal_size_max          0.37
_exptl_crystal_size_mid          0.29
_exptl_crystal_size_min          0.15
_refine_diff_density_max         0.725
_refine_diff_density_min         -0.709
_refine_diff_density_rms         0.113
_refine_ls_extinction_method     none
_refine_ls_goodness_of_fit_ref   1.054
_refine_ls_hydrogen_treatment    mixed
_refine_ls_matrix_type           full
_refine_ls_number_parameters     226
_refine_ls_number_reflns         3013
_refine_ls_number_restraints     0
_refine_ls_restrained_S_all      1.054
_refine_ls_R_factor_all          0.0975
_refine_ls_R_factor_gt           0.0627
_refine_ls_shift/su_max          0.000
_refine_ls_shift/su_mean         0.000
_refine_ls_structure_factor_coef Fsqd
_refine_ls_weighting_details
'calc w=1/[\s^2^(Fo^2^)+(0.0800P)^2^+1.4287P] where P=(Fo^2^+2Fc^2^)/3'
_refine_ls_weighting_scheme      calc
_refine_ls_wR_factor_gt          0.1614
_refine_ls_wR_factor_ref         0.1796
_reflns_number_gt                1969
_reflns_number_total             3013
_reflns_threshold_expression     >2sigma(I)
_cod_data_source_file            ol6b03763_si_005.cif
_cod_data_source_block           xb9672_0m
_cod_depositor_comments
;
The following automatic conversions were performed:

'_symmetry_cell_setting' value 'Monoclinic' changed to 'monoclinic'
according to
/home/data/users/saulius/crontab/automatic-downloads/current/ACS/lib/dictionaries/cif_core.dic
dictionary named 'cif_core.dic' version 2.4.2 from 2011-04-26.

Automatic conversion script
Id: cif_fix_values 4973 2017-02-22 13:04:09Z antanas 
;
_cod_original_cell_volume        1695.1(18)
_cod_original_sg_symbol_H-M      'P2(1)/n  '
_cod_database_code               1545462
loop_
_symmetry_equiv_pos_as_xyz
'x, y, z'
'-x+1/2, y+1/2, -z+1/2'
'-x, -y, -z'
'x-1/2, -y-1/2, z-1/2'
loop_
_atom_site_label
_atom_site_type_symbol
_atom_site_fract_x
_atom_site_fract_y
_atom_site_fract_z
_atom_site_U_iso_or_equiv
_atom_site_adp_type
_atom_site_occupancy
_atom_site_symmetry_multiplicity
_atom_site_calc_flag
_atom_site_refinement_flags
Br1 Br 1.42866(8) 0.01716(5) 0.30680(7) 0.0676(3) Uani 1 1 d .
S1 S 0.86422(16) 0.13171(8) 0.13779(12) 0.0399(4) Uani 1 1 d .
N1 N 0.7553(5) 0.1686(3) -0.0788(4) 0.0457(12) Uani 1 1 d .
O1 O 0.7135(5) 0.1281(2) 0.1813(4) 0.0555(12) Uani 1 1 d .
O2 O 0.9134(4) 0.0464(2) 0.0949(3) 0.0388(9) Uani 1 1 d .
O3 O 0.9829(5) 0.1604(3) 0.2138(4) 0.0624(12) Uani 1 1 d .
O4 O 0.7694(5) -0.1801(2) 0.3309(4) 0.0605(12) Uani 1 1 d .
C1 C 0.7589(9) 0.2057(4) -0.1866(6) 0.0602(18) Uani 1 1 d .
H1 H 0.6803 0.1977 -0.2419 0.072 Uiso 1 1 calc R
C2 C 0.8731(10) 0.2543(4) -0.2175(6) 0.069(2) Uani 1 1 d .
H2 H 0.8697 0.2791 -0.2921 0.083 Uiso 1 1 calc R
C3 C 0.9929(9) 0.2670(4) -0.1399(7) 0.068(2) Uani 1 1 d .
H3 H 1.0709 0.2999 -0.1612 0.081 Uiso 1 1 calc R
C4 C 0.9951(7) 0.2286(4) -0.0259(6) 0.0534(16) Uani 1 1 d .
H4 H 1.0737 0.2346 0.0300 0.064 Uiso 1 1 calc R
C5 C 0.8722(6) 0.1818(3) -0.0040(5) 0.0349(12) Uani 1 1 d .
C6 C 0.8183(6) -0.0201(3) 0.1160(5) 0.0371(13) Uani 1 1 d .
C7 C 0.7042(6) -0.0351(3) 0.0335(5) 0.0444(14) Uani 1 1 d .
H7 H 0.6841 -0.0007 -0.0297 0.053 Uiso 1 1 calc R
C8 C 0.6184(7) -0.1031(4) 0.0461(6) 0.0545(16) Uani 1 1 d .
H8 H 0.5469 -0.1165 -0.0127 0.065 Uiso 1 1 calc R
C9 C 0.6408(7) -0.1499(4) 0.1463(7) 0.0569(17) Uani 1 1 d .
H9 H 0.5813 -0.1937 0.1569 0.068 Uiso 1 1 calc R
C10 C 0.7530(7) -0.1312(3) 0.2316(5) 0.0449(14) Uani 1 1 d .
C11 C 0.8509(6) -0.0674(3) 0.2172(5) 0.0364(12) Uani 1 1 d .
C12 C 0.9835(6) -0.0611(3) 0.3006(5) 0.0384(13) Uani 1 1 d .
C13 C 1.1211(6) -0.0246(3) 0.2732(5) 0.0396(13) Uani 1 1 d .
H13 H 1.1296 0.0032 0.2017 0.048 Uiso 1 1 calc R
C14 C 1.2424(7) -0.0302(3) 0.3521(5) 0.0466(15) Uani 1 1 d .
C15 C 1.2323(9) -0.0701(4) 0.4607(6) 0.065(2) Uani 1 1 d .
H15 H 1.3150 -0.0726 0.5133 0.078 Uiso 1 1 calc R
C16 C 1.1001(9) -0.1058(4) 0.4904(6) 0.068(2) Uani 1 1 d .
H16 H 1.0939 -0.1324 0.5633 0.081 Uiso 1 1 calc R
C17 C 0.9744(8) -0.1027(4) 0.4120(5) 0.0522(16) Uani 1 1 d .
C18 C 0.8300(8) -0.1414(4) 0.4381(6) 0.0638(19) Uani 1 1 d .
H18A H 0.8456 -0.1793 0.5020 0.077 Uiso 1 1 calc R
H18B H 0.7586 -0.1031 0.4657 0.077 Uiso 1 1 calc R
loop_
_atom_site_aniso_label
_atom_site_aniso_U_11
_atom_site_aniso_U_22
_atom_site_aniso_U_33
_atom_site_aniso_U_23
_atom_site_aniso_U_13
_atom_site_aniso_U_12
Br1 0.0517(5) 0.0875(6) 0.0629(5) -0.0116(4) -0.0123(3) -0.0037(3)
S1 0.0534(9) 0.0385(8) 0.0278(7) 0.0007(6) 0.0052(6) 0.0005(6)
N1 0.054(3) 0.045(3) 0.038(3) 0.005(2) 0.003(2) 0.005(2)
O1 0.067(3) 0.047(2) 0.054(3) 0.003(2) 0.033(2) 0.007(2)
O2 0.041(2) 0.040(2) 0.036(2) 0.0053(17) 0.0073(17) 0.0013(17)
O3 0.084(3) 0.059(3) 0.043(2) -0.005(2) -0.013(2) -0.007(2)
O4 0.083(3) 0.047(3) 0.053(3) 0.008(2) 0.014(2) -0.016(2)
C1 0.084(5) 0.060(4) 0.036(4) -0.002(3) -0.003(3) 0.020(4)
C2 0.116(6) 0.050(4) 0.041(4) 0.012(3) 0.022(4) 0.024(4)
C3 0.081(5) 0.050(4) 0.073(5) 0.010(4) 0.034(4) -0.004(4)
C4 0.057(4) 0.051(4) 0.052(4) 0.010(3) 0.013(3) -0.004(3)
C5 0.047(3) 0.027(3) 0.031(3) -0.001(2) 0.010(3) 0.003(2)
C6 0.039(3) 0.038(3) 0.035(3) -0.003(3) 0.007(2) 0.002(2)
C7 0.045(3) 0.049(4) 0.040(3) -0.001(3) 0.004(3) 0.011(3)
C8 0.043(3) 0.064(4) 0.056(4) -0.015(4) -0.001(3) -0.002(3)
C9 0.048(4) 0.048(4) 0.075(5) -0.014(4) 0.013(3) -0.012(3)
C10 0.051(3) 0.040(3) 0.044(3) 0.002(3) 0.010(3) 0.003(3)
C11 0.045(3) 0.033(3) 0.031(3) -0.002(2) 0.006(2) 0.000(2)
C12 0.056(3) 0.031(3) 0.028(3) -0.001(2) 0.005(3) 0.002(3)
C13 0.052(3) 0.036(3) 0.031(3) -0.003(2) -0.001(3) 0.005(3)
C14 0.061(4) 0.044(4) 0.034(3) -0.005(3) -0.005(3) 0.007(3)
C15 0.085(5) 0.058(4) 0.049(4) -0.002(3) -0.034(4) -0.001(4)
C16 0.114(6) 0.055(4) 0.033(3) 0.013(3) -0.015(4) -0.002(4)
C17 0.079(4) 0.041(4) 0.036(3) 0.008(3) 0.005(3) -0.010(3)
C18 0.090(5) 0.058(4) 0.044(4) 0.006(3) 0.013(4) -0.020(4)
loop_
_atom_type_symbol
_atom_type_description
_atom_type_scat_dispersion_real
_atom_type_scat_dispersion_imag
_atom_type_scat_source
C C 0.0033 0.0016 'International Tables Vol C Tables 4.2.6.8 and 6.1.1.4'
H H 0.0000 0.0000 'International Tables Vol C Tables 4.2.6.8 and 6.1.1.4'
N N 0.0061 0.0033 'International Tables Vol C Tables 4.2.6.8 and 6.1.1.4'
O O 0.0106 0.0060 'International Tables Vol C Tables 4.2.6.8 and 6.1.1.4'
S S 0.1246 0.1234 'International Tables Vol C Tables 4.2.6.8 and 6.1.1.4'
Br Br -0.2901 2.4595 'International Tables Vol C Tables 4.2.6.8 and 6.1.1.4'
loop_
_geom_angle_atom_site_label_1
_geom_angle_atom_site_label_2
_geom_angle_atom_site_label_3
_geom_angle
O3 S1 O1 120.2(3)
O3 S1 O2 106.7(2)
O1 S1 O2 108.8(2)
O3 S1 C5 107.9(3)
O1 S1 C5 111.7(3)
O2 S1 C5 99.4(2)
C5 N1 C1 115.7(5)
C6 O2 S1 120.6(3)
C10 O4 C18 113.6(4)
N1 C1 C2 122.8(7)
N1 C1 H1 118.6
C2 C1 H1 118.6
C1 C2 C3 120.8(6)
C1 C2 H2 119.6
C3 C2 H2 119.6
C2 C3 C4 118.5(6)
C2 C3 H3 120.8
C4 C3 H3 120.8
C5 C4 C3 115.5(6)
C5 C4 H4 122.3
C3 C4 H4 122.3
N1 C5 C4 126.8(5)
N1 C5 S1 114.6(4)
C4 C5 S1 118.6(4)
C7 C6 C11 123.9(5)
C7 C6 O2 117.9(5)
C11 C6 O2 118.2(5)
C6 C7 C8 119.0(6)
C6 C7 H7 120.5
C8 C7 H7 120.5
C9 C8 C7 119.7(6)
C9 C8 H8 120.1
C7 C8 H8 120.1
C8 C9 C10 119.9(6)
C8 C9 H9 120.1
C10 C9 H9 120.1
O4 C10 C9 117.2(5)
O4 C10 C11 120.3(5)
C9 C10 C11 122.4(6)
C6 C11 C10 114.9(5)
C6 C11 C12 126.8(5)
C10 C11 C12 118.0(5)
C13 C12 C17 118.2(5)
C13 C12 C11 125.3(5)
C17 C12 C11 116.2(5)
C14 C13 C12 120.2(5)
C14 C13 H13 119.9
C12 C13 H13 119.9
C13 C14 C15 121.3(6)
C13 C14 Br1 118.3(4)
C15 C14 Br1 120.5(5)
C16 C15 C14 120.0(6)
C16 C15 H15 120.0
C14 C15 H15 120.0
C15 C16 C17 120.7(6)
C15 C16 H16 119.6
C17 C16 H16 119.6
C16 C17 C12 119.6(6)
C16 C17 C18 123.1(6)
C12 C17 C18 117.3(6)
O4 C18 C17 110.8(5)
O4 C18 H18A 109.5
C17 C18 H18A 109.5
O4 C18 H18B 109.5
C17 C18 H18B 109.5
H18A C18 H18B 108.1
loop_
_geom_bond_atom_site_label_1
_geom_bond_atom_site_label_2
_geom_bond_distance
Br1 C14 1.925(7)
S1 O3 1.424(4)
S1 O1 1.438(4)
S1 O2 1.606(4)
S1 C5 1.794(5)
N1 C5 1.335(7)
N1 C1 1.354(8)
O2 C6 1.445(6)
O4 C10 1.389(7)
O4 C18 1.453(7)
C1 C2 1.366(10)
C1 H1 0.9300
C2 C3 1.373(11)
C2 H2 0.9300
C3 C4 1.424(9)
C3 H3 0.9300
C4 C5 1.384(7)
C4 H4 0.9300
C6 C7 1.376(8)
C6 C11 1.409(8)
C7 C8 1.405(9)
C7 H7 0.9300
C8 C9 1.381(9)
C8 H8 0.9300
C9 C10 1.398(9)
C9 H9 0.9300
C10 C11 1.413(8)
C11 C12 1.487(8)
C12 C13 1.415(8)
C12 C17 1.429(8)
C13 C14 1.378(8)
C13 H13 0.9300
C14 C15 1.389(9)
C15 C16 1.375(10)
C15 H15 0.9300
C16 C17 1.403(9)
C16 H16 0.9300
C17 C18 1.483(8)
C18 H18A 0.9700
C18 H18B 0.9700
loop_
_geom_torsion_atom_site_label_1
_geom_torsion_atom_site_label_2
_geom_torsion_atom_site_label_3
_geom_torsion_atom_site_label_4
_geom_torsion
O3 S1 O2 C6 124.1(4)
O1 S1 O2 C6 -7.0(4)
C5 S1 O2 C6 -123.9(4)
C5 N1 C1 C2 -0.7(9)
N1 C1 C2 C3 1.1(10)
C1 C2 C3 C4 -0.4(10)
C2 C3 C4 C5 -0.6(9)
C1 N1 C5 C4 -0.4(8)
C1 N1 C5 S1 -179.9(4)
C3 C4 C5 N1 1.0(9)
C3 C4 C5 S1 -179.5(4)
O3 S1 C5 N1 -171.3(4)
O1 S1 C5 N1 -37.1(5)
O2 S1 C5 N1 77.6(4)
O3 S1 C5 C4 9.1(5)
O1 S1 C5 C4 143.4(4)
O2 S1 C5 C4 -101.9(4)
S1 O2 C6 C7 84.4(5)
S1 O2 C6 C11 -97.8(5)
C11 C6 C7 C8 -3.1(8)
O2 C6 C7 C8 174.5(5)
C6 C7 C8 C9 5.7(9)
C7 C8 C9 C10 -2.9(9)
C18 O4 C10 C9 -152.2(6)
C18 O4 C10 C11 30.1(7)
C8 C9 C10 O4 179.5(5)
C8 C9 C10 C11 -2.8(9)
C7 C6 C11 C10 -2.3(8)
O2 C6 C11 C10 -179.9(4)
C7 C6 C11 C12 171.2(5)
O2 C6 C11 C12 -6.4(8)
O4 C10 C11 C6 -177.1(5)
C9 C10 C11 C6 5.3(8)
O4 C10 C11 C12 8.8(8)
C9 C10 C11 C12 -168.8(5)
C6 C11 C12 C13 -21.3(9)
C10 C11 C12 C13 152.0(5)
C6 C11 C12 C17 165.5(5)
C10 C11 C12 C17 -21.2(7)
C17 C12 C13 C14 0.6(8)
C11 C12 C13 C14 -172.4(5)
C12 C13 C14 C15 -1.2(9)
C12 C13 C14 Br1 177.5(4)
C13 C14 C15 C16 0.9(10)
Br1 C14 C15 C16 -177.9(5)
C14 C15 C16 C17 0.1(11)
C15 C16 C17 C12 -0.7(10)
C15 C16 C17 C18 178.7(7)
C13 C12 C17 C16 0.3(9)
C11 C12 C17 C16 174.0(6)
C13 C12 C17 C18 -179.1(5)
C11 C12 C17 C18 -5.4(8)
C10 O4 C18 C17 -54.9(7)
C16 C17 C18 O4 -136.8(6)
C12 C17 C18 O4 42.6(8)
