#------------------------------------------------------------------------------
#$Date: 2017-04-25 08:34:29 +0300 (Tue, 25 Apr 2017) $
#$Revision: 195746 $
#$URL: file:///home/coder/svn-repositories/cod/cif/1/54/58/1545836.cif $
#------------------------------------------------------------------------------
#
# This file is available in the Crystallography Open Database (COD),
# http://www.crystallography.net/. The original data for this entry
# were provided by IUCr Journals, http://journals.iucr.org/.
#
# The file may be used within the scientific community so long as
# proper attribution is given to the journal article from which the
# data were obtained.
#
data_1545836
loop_
_publ_author_name
'Bolla, Geetha'
'Nangia, Ashwini'
_publ_section_title
;
 Binary and ternary cocrystals of sulfa drug acetazolamide with pyridine
 carboxamides and cyclic amides
;
_journal_coeditor_code           ED5007
_journal_issue                   2
_journal_name_full               IUCrJ
_journal_page_first              152
_journal_page_last               160
_journal_paper_doi               10.1107/S2052252516000543
_journal_volume                  3
_journal_year                    2016
_chemical_formula_moiety         C4H6N4O3S2,C6H6N2O,C5H5NO
_chemical_formula_sum            'C15 H17 N7 O5 S2'
_chemical_formula_weight         439.48
_chemical_melting_point          398
_chemical_name_common            'ACETAZOLAMIDE;NICOTINAMIDE; 2 PYRIDONE'
_chemical_name_systematic
; 
 ? 
;
_space_group_IT_number           2
_symmetry_cell_setting           triclinic
_symmetry_space_group_name_Hall  '-P 1'
_symmetry_space_group_name_H-M   'P -1'
_atom_sites_solution_hydrogens   geom
_atom_sites_solution_primary     direct
_atom_sites_solution_secondary   difmap
_audit_creation_method           SHELXL-97
_cell_angle_alpha                81.685(6)
_cell_angle_beta                 83.028(5)
_cell_angle_gamma                88.283(5)
_cell_formula_units_Z            2
_cell_length_a                   7.0347(3)
_cell_length_b                   10.2539(7)
_cell_length_c                   13.7934(9)
_cell_measurement_reflns_used    3059
_cell_measurement_temperature    298(2)
_cell_measurement_theta_max      71.7750
_cell_measurement_theta_min      4.3370
_cell_volume                     977.14(10)
_computing_structure_refinement  'SHELXL-97 (Sheldrick, 1997)'
_computing_structure_solution    'SHELXS-97 (Sheldrick, 1990)'
_diffrn_ambient_temperature      298(2)
_diffrn_measured_fraction_theta_full 0.999
_diffrn_measured_fraction_theta_max 0.999
_diffrn_measurement_device_type  'Xcalibur, Eos, Gemini'
_diffrn_measurement_method       '\w scans'
_diffrn_radiation_monochromator  graphite
_diffrn_radiation_source         'fine-focus sealed tube'
_diffrn_radiation_type           CuK\a
_diffrn_radiation_wavelength     1.54184
_diffrn_reflns_av_R_equivalents  0.0189
_diffrn_reflns_av_sigmaI/netI    0.0252
_diffrn_reflns_limit_h_max       5
_diffrn_reflns_limit_h_min       -8
_diffrn_reflns_limit_k_max       12
_diffrn_reflns_limit_k_min       -12
_diffrn_reflns_limit_l_max       14
_diffrn_reflns_limit_l_min       -16
_diffrn_reflns_number            5696
_diffrn_reflns_theta_full        67.08
_diffrn_reflns_theta_max         67.08
_diffrn_reflns_theta_min         3.26
_exptl_absorpt_coefficient_mu    2.872
_exptl_absorpt_correction_T_max  1.00000
_exptl_absorpt_correction_T_min  0.37390
_exptl_absorpt_correction_type   multi-scan
_exptl_crystal_colour            COLORLES
_exptl_crystal_density_diffrn    1.494
_exptl_crystal_density_method    'not measured'
_exptl_crystal_description       PLATE
_exptl_crystal_F_000             456
_exptl_crystal_size_max          0.20
_exptl_crystal_size_mid          0.18
_exptl_crystal_size_min          0.18
_refine_diff_density_max         0.800
_refine_diff_density_min         -0.437
_refine_diff_density_rms         0.117
_refine_ls_extinction_method     none
_refine_ls_goodness_of_fit_ref   1.083
_refine_ls_hydrogen_treatment    mixed
_refine_ls_matrix_type           full
_refine_ls_number_parameters     269
_refine_ls_number_reflns         3493
_refine_ls_number_restraints     0
_refine_ls_restrained_S_all      1.083
_refine_ls_R_factor_all          0.0651
_refine_ls_R_factor_gt           0.0612
_refine_ls_shift/su_max          0.000
_refine_ls_shift/su_mean         0.000
_refine_ls_structure_factor_coef Fsqd
_refine_ls_weighting_details
'calc w=1/[\s^2^(Fo^2^)+(0.1265P)^2^+0.1831P] where P=(Fo^2^+2Fc^2^)/3'
_refine_ls_weighting_scheme      calc
_refine_ls_wR_factor_gt          0.1729
_refine_ls_wR_factor_ref         0.1789
_reflns_number_gt                3085
_reflns_number_total             3493
_reflns_threshold_expression     >2sigma(I)
_cod_data_source_file            ed5007.cif
_cod_data_source_block           ACZNAM2HP111
_cod_original_cell_volume        977.13(10)
_cod_database_code               1545836
loop_
_symmetry_equiv_pos_as_xyz
'x, y, z'
'-x, -y, -z'
loop_
_atom_site_label
_atom_site_type_symbol
_atom_site_fract_x
_atom_site_fract_y
_atom_site_fract_z
_atom_site_U_iso_or_equiv
_atom_site_adp_type
_atom_site_occupancy
_atom_site_symmetry_multiplicity
_atom_site_calc_flag
_atom_site_refinement_flags
S1 S 0.22992(10) 0.58018(6) 0.91819(4) 0.0443(2) Uani 1 1 d .
S2 S 0.10956(11) 0.86219(6) 0.84318(5) 0.0509(3) Uani 1 1 d .
N3 N 0.3772(3) 0.3583(2) 0.84479(15) 0.0432(5) Uani 1 1 d .
H3A H 0.4276 0.3208 0.7958 0.052 Uiso 1 1 calc R
N4 N -0.1101(4) 0.8589(3) 0.83042(18) 0.0542(6) Uani 1 1 d .
H4D H -0.135(5) 0.874(4) 0.765(3) 0.065 Uiso 1 1 d .
H4E H -0.169(5) 0.809(4) 0.875(3) 0.065 Uiso 1 1 d .
O4 O 0.2932(3) 0.3349(2) 1.00854(14) 0.0579(6) Uani 1 1 d .
N1 N 0.2665(4) 0.6787(2) 0.73554(17) 0.0532(6) Uani 1 1 d .
O2 O 0.1267(4) 0.8680(2) 0.94448(18) 0.0756(7) Uani 1 1 d .
N2 N 0.3323(4) 0.5504(2) 0.73756(17) 0.0529(6) Uani 1 1 d .
C2 C 0.3203(4) 0.4885(3) 0.82671(17) 0.0398(5) Uani 1 1 d .
O3 O 0.1975(4) 0.9579(2) 0.7666(2) 0.0748(7) Uani 1 1 d .
C3 C 0.3579(4) 0.2863(3) 0.93588(19) 0.0449(6) Uani 1 1 d .
C1 C 0.2122(4) 0.7064(3) 0.82222(19) 0.0432(6) Uani 1 1 d .
C4 C 0.4247(6) 0.1463(3) 0.9399(2) 0.0640(9) Uani 1 1 d .
H4A H 0.5228 0.1301 0.9831 0.096 Uiso 1 1 calc R
H4B H 0.4755 0.1299 0.8750 0.096 Uiso 1 1 calc R
H4C H 0.3190 0.0889 0.9644 0.096 Uiso 1 1 calc R
O5 O 0.2092(4) 1.1295(2) 0.36200(15) 0.0630(6) Uani 1 1 d .
N7 N 0.0777(4) 0.4994(2) 0.36778(17) 0.0498(6) Uani 1 1 d .
H7A H 0.0756 0.4481 0.4231 0.060 Uiso 1 1 calc R
N6 N 0.2013(3) 1.0862(2) 0.52532(17) 0.0502(6) Uani 1 1 d .
H6B H 0.1589 1.1642 0.5325 0.060 Uiso 1 1 calc R
H6A H 0.2210 1.0307 0.5762 0.060 Uiso 1 1 calc R
O1 O -0.0862(4) 0.6521(2) 0.44814(15) 0.0629(6) Uani 1 1 d .
C6 C 0.3112(4) 0.9151(3) 0.42818(18) 0.0398(5) Uani 1 1 d .
N5 N 0.4717(3) 0.7672(2) 0.32463(16) 0.0477(5) Uani 1 1 d .
C12 C 0.0046(5) 0.7021(3) 0.2751(2) 0.0540(7) Uani 1 1 d .
H12 H -0.0488 0.7866 0.2708 0.065 Uiso 1 1 calc R
C10 C 0.2361(4) 1.0519(3) 0.43622(19) 0.0424(6) Uani 1 1 d .
C11 C -0.0067(4) 0.6203(3) 0.3685(2) 0.0491(6) Uani 1 1 d .
C5 C 0.3970(4) 0.8856(3) 0.33832(18) 0.0444(6) Uani 1 1 d .
H5 H 0.4032 0.9518 0.2843 0.053 Uiso 1 1 calc R
C14 C 0.1743(5) 0.5306(3) 0.1967(2) 0.0579(7) Uani 1 1 d .
H14 H 0.2330 0.5000 0.1400 0.069 Uiso 1 1 calc R
C15 C 0.1651(4) 0.4540(3) 0.2854(2) 0.0521(7) Uani 1 1 d .
H15 H 0.2189 0.3697 0.2902 0.063 Uiso 1 1 calc R
C13 C 0.0925(5) 0.6582(3) 0.1922(2) 0.0575(7) Uani 1 1 d .
H13 H 0.0986 0.7129 0.1320 0.069 Uiso 1 1 calc R
C7 C 0.3000(5) 0.8162(3) 0.5076(2) 0.0555(7) Uani 1 1 d .
H7 H 0.2422 0.8318 0.5692 0.067 Uiso 1 1 calc R
C8 C 0.3758(6) 0.6939(3) 0.4942(2) 0.0658(9) Uani 1 1 d .
H8 H 0.3688 0.6255 0.5466 0.079 Uiso 1 1 calc R
C9 C 0.4616(5) 0.6739(3) 0.4030(2) 0.0547(7) Uani 1 1 d .
H9 H 0.5153 0.5915 0.3954 0.066 Uiso 1 1 calc R
loop_
_atom_site_aniso_label
_atom_site_aniso_U_11
_atom_site_aniso_U_22
_atom_site_aniso_U_33
_atom_site_aniso_U_23
_atom_site_aniso_U_13
_atom_site_aniso_U_12
S1 0.0696(5) 0.0335(4) 0.0282(4) -0.0030(2) -0.0027(3) 0.0075(3)
S2 0.0774(5) 0.0294(4) 0.0448(4) -0.0038(3) -0.0058(3) 0.0050(3)
N3 0.0577(12) 0.0366(11) 0.0318(11) -0.0025(8) 0.0030(8) 0.0107(9)
N4 0.0779(17) 0.0439(13) 0.0353(12) 0.0029(10) 0.0025(11) 0.0137(11)
O4 0.0930(15) 0.0422(11) 0.0336(10) -0.0007(8) 0.0032(9) 0.0111(10)
N1 0.0773(16) 0.0404(12) 0.0358(12) 0.0026(9) 0.0048(10) 0.0141(11)
O2 0.122(2) 0.0509(13) 0.0616(15) -0.0222(11) -0.0293(14) 0.0163(13)
N2 0.0769(16) 0.0417(13) 0.0336(11) 0.0028(9) 0.0063(10) 0.0163(11)
C2 0.0487(13) 0.0381(13) 0.0299(12) -0.0022(9) 0.0010(9) 0.0063(10)
O3 0.0926(17) 0.0371(11) 0.0856(18) 0.0099(11) 0.0049(13) -0.0042(11)
C3 0.0578(15) 0.0377(13) 0.0368(13) -0.0020(10) -0.0016(11) 0.0057(11)
C1 0.0598(15) 0.0319(12) 0.0353(13) -0.0001(10) -0.0018(10) 0.0042(10)
C4 0.099(2) 0.0414(17) 0.0458(16) 0.0013(12) 0.0004(15) 0.0157(16)
O5 0.1071(17) 0.0416(11) 0.0384(11) -0.0005(9) -0.0126(10) 0.0224(11)
N7 0.0734(15) 0.0398(12) 0.0368(11) -0.0080(9) -0.0077(10) 0.0072(10)
N6 0.0714(15) 0.0380(12) 0.0418(12) -0.0091(9) -0.0086(10) 0.0150(10)
O1 0.0994(16) 0.0466(12) 0.0427(11) -0.0127(9) -0.0076(10) 0.0234(11)
C6 0.0465(13) 0.0368(13) 0.0347(12) -0.0041(10) -0.0020(9) 0.0067(10)
N5 0.0618(13) 0.0444(12) 0.0349(11) -0.0080(9) 0.0023(9) 0.0118(10)
C12 0.0746(18) 0.0397(14) 0.0487(16) -0.0040(12) -0.0145(13) 0.0032(13)
C10 0.0512(13) 0.0365(13) 0.0388(13) -0.0036(10) -0.0058(10) 0.0057(10)
C11 0.0672(16) 0.0400(14) 0.0430(15) -0.0125(11) -0.0126(12) 0.0075(12)
C5 0.0578(15) 0.0414(14) 0.0318(12) -0.0021(10) -0.0024(10) 0.0078(11)
C14 0.0686(18) 0.0632(19) 0.0425(15) -0.0159(13) 0.0004(13) -0.0006(14)
C15 0.0656(17) 0.0440(15) 0.0483(15) -0.0154(12) -0.0040(12) 0.0063(12)
C13 0.0710(18) 0.0577(18) 0.0420(15) 0.0013(13) -0.0086(13) -0.0062(14)
C7 0.085(2) 0.0436(15) 0.0316(13) -0.0008(11) 0.0092(12) 0.0167(13)
C8 0.105(3) 0.0426(17) 0.0405(16) 0.0050(12) 0.0094(15) 0.0237(16)
C9 0.0780(19) 0.0385(14) 0.0438(15) -0.0049(12) 0.0020(13) 0.0180(13)
loop_
_atom_type_symbol
_atom_type_description
_atom_type_scat_dispersion_real
_atom_type_scat_dispersion_imag
_atom_type_scat_source
C C 0.0181 0.0091 'International Tables Vol C Tables 4.2.6.8 and 6.1.1.4'
H H 0.0000 0.0000 'International Tables Vol C Tables 4.2.6.8 and 6.1.1.4'
N N 0.0311 0.0180 'International Tables Vol C Tables 4.2.6.8 and 6.1.1.4'
O O 0.0492 0.0322 'International Tables Vol C Tables 4.2.6.8 and 6.1.1.4'
S S 0.3331 0.5567 'International Tables Vol C Tables 4.2.6.8 and 6.1.1.4'
loop_
_geom_angle_atom_site_label_1
_geom_angle_atom_site_label_2
_geom_angle_atom_site_label_3
_geom_angle
C1 S1 C2 84.93(12)
O2 S2 O3 121.32(18)
O2 S2 N4 108.37(16)
O3 S2 N4 107.68(15)
O2 S2 C1 104.20(13)
O3 S2 C1 106.83(14)
N4 S2 C1 107.75(14)
C3 N3 C2 123.4(2)
C1 N1 N2 111.9(2)
C2 N2 N1 111.6(2)
N2 C2 N3 120.8(2)
N2 C2 S1 115.5(2)
N3 C2 S1 123.76(18)
O4 C3 N3 121.4(2)
O4 C3 C4 123.2(2)
N3 C3 C4 115.3(2)
N1 C1 S1 116.1(2)
N1 C1 S2 122.40(19)
S1 C1 S2 121.40(15)
C11 N7 C15 124.4(3)
C7 C6 C5 117.9(2)
C7 C6 C10 122.6(2)
C5 C6 C10 119.5(2)
C9 N5 C5 117.2(2)
C13 C12 C11 120.8(3)
O5 C10 N6 121.4(3)
O5 C10 C6 121.0(2)
N6 C10 C6 117.6(2)
O1 C11 N7 119.5(3)
O1 C11 C12 125.1(3)
N7 C11 C12 115.4(3)
N5 C5 C6 123.6(2)
C15 C14 C13 118.2(3)
C14 C15 N7 120.5(3)
C12 C13 C14 120.8(3)
C8 C7 C6 118.8(3)
C9 C8 C7 119.4(3)
N5 C9 C8 122.9(3)
loop_
_geom_bond_atom_site_label_1
_geom_bond_atom_site_label_2
_geom_bond_distance
S1 C1 1.726(2)
S1 C2 1.730(2)
S2 O2 1.427(2)
S2 O3 1.428(2)
S2 N4 1.578(3)
S2 C1 1.781(3)
N3 C3 1.356(3)
N3 C2 1.379(3)
O4 C3 1.216(3)
N1 C1 1.279(3)
N1 N2 1.379(3)
N2 C2 1.294(3)
C3 C4 1.493(4)
O5 C10 1.233(3)
N7 C11 1.359(4)
N7 C15 1.361(4)
N6 C10 1.320(3)
O1 C11 1.253(3)
C6 C7 1.377(4)
C6 C5 1.381(3)
C6 C10 1.499(3)
N5 C9 1.332(4)
N5 C5 1.338(3)
C12 C13 1.361(4)
C12 C11 1.427(4)
C14 C15 1.351(4)
C14 C13 1.409(5)
C7 C8 1.376(4)
C8 C9 1.368(4)
