#------------------------------------------------------------------------------
#$Date: 2017-04-18 07:44:08 +0300 (Tue, 18 Apr 2017) $
#$Revision: 195483 $
#$URL: file:///home/coder/svn-repositories/cod/cif/1/54/57/1545750.cif $
#------------------------------------------------------------------------------
#
# This file is available in the Crystallography Open Database (COD),
# http://www.crystallography.net/
#
# All data on this site have been placed in the public domain by the
# contributors.
#
data_1545750
loop_
_publ_author_name
'Celebi, Elif Busra'
'Hac\?ivelio\(glu, Ferda'
_publ_section_title
;
 Preparation of Sulfonic Acid Functional Proton Conducting Phosphazenes by
 Covalent Protection
;
_journal_name_full               'Polym. Chem.'
_journal_paper_doi               10.1039/C7PY00189D
_journal_year                    2017
_chemical_formula_moiety         'C48 H54 N3 O24 P3 S6'
_chemical_formula_sum            'C48 H54 N3 O24 P3 S6'
_chemical_formula_weight         1342.21
_chemical_melting_point          410
_chemical_name_systematic        Phosphazene
_space_group_crystal_system      monoclinic
_space_group_IT_number           14
_space_group_name_Hall           '-P 2ybc'
_space_group_name_H-M_alt        'P 1 21/c 1'
_symmetry_space_group_name_Hall  '-P 2ybc'
_symmetry_space_group_name_H-M   'P 1 21/c 1'
_atom_sites_solution_hydrogens   geom
_atom_sites_solution_primary     direct
_audit_creation_date             2016-11-08
_audit_creation_method
;
Olex2 1.2
(compiled 2016.09.09 svn.r3337 for OlexSys, GUI svn.r5227)
;
_audit_update_record
;
2016-12-24 deposited with the CCDC.
2017-04-17 downloaded from the CCDC.
;
_cell_angle_alpha                90
_cell_angle_beta                 97.7219(16)
_cell_angle_gamma                90
_cell_formula_units_Z            4
_cell_length_a                   14.9225(2)
_cell_length_b                   13.0558(2)
_cell_length_c                   30.1455(5)
_cell_measurement_reflns_used    24539
_cell_measurement_temperature    173.15
_cell_measurement_theta_max      29.4440
_cell_measurement_theta_min      2.0970
_cell_volume                     5819.84(15)
_computing_cell_refinement       'CrysAlisPro 1.171.38.43 (Rigaku OD, 2015)'
_computing_data_collection       'CrysAlisPro 1.171.38.43 (Rigaku OD, 2015)'
_computing_data_reduction        'CrysAlisPro 1.171.38.43 (Rigaku OD, 2015)'
_computing_molecular_graphics    'Olex2 (Dolomanov et al., 2009)'
_computing_publication_material  'Olex2 (Dolomanov et al., 2009)'
_computing_structure_refinement  'ShelXL (Sheldrick, 2015)'
_computing_structure_solution    'ShelXT (Sheldrick, 2015)'
_diffrn_ambient_temperature      173.15
_diffrn_detector                 'Bruker APEX2 area detector'
_diffrn_detector_area_resol_mean 7.9
_diffrn_detector_type            'CCD area detector'
_diffrn_measured_fraction_theta_full 0.992
_diffrn_measured_fraction_theta_max 0.989
_diffrn_measurement_details
;
List of Runs (angles in degrees, time in seconds):

  # Type    Start    End  Width  t~exp~   \w     \q     \k     \f   Frames
#--------------------------------------------------------------------------
  1  \w   -106.00  74.00   1.00    8.00    --  -16.00   0.00-120.00  180
  2  \w    -76.00  20.00   1.00    8.00    --  -16.00 -72.00 150.00   96
  3  \w    -89.00 -74.00   1.00    8.00    --  -16.00   0.00-150.00   15
;
_diffrn_measurement_device       'three-circle diffractometer'
_diffrn_measurement_device_type  'Bruker SMART APEX2 area detector'
_diffrn_measurement_method       '\w and \f scans'
_diffrn_orient_matrix_type
'CrysAlisPro convention (1999,Acta A55,543-557)'
_diffrn_orient_matrix_UB_11      -0.0185983000
_diffrn_orient_matrix_UB_12      0.0499281000
_diffrn_orient_matrix_UB_13      -0.0028632000
_diffrn_orient_matrix_UB_21      -0.0227285000
_diffrn_orient_matrix_UB_22      -0.0072771000
_diffrn_orient_matrix_UB_23      0.0189652000
_diffrn_orient_matrix_UB_31      0.0379221000
_diffrn_orient_matrix_UB_32      0.0201089000
_diffrn_orient_matrix_UB_33      0.0140119000
_diffrn_radiation_monochromator  'mirror optics'
_diffrn_radiation_probe          x-ray
_diffrn_radiation_type           MoK\a
_diffrn_radiation_wavelength     0.71075
_diffrn_reflns_av_R_equivalents  0.0213
_diffrn_reflns_av_unetI/netI     0.0233
_diffrn_reflns_Laue_measured_fraction_full 0.992
_diffrn_reflns_Laue_measured_fraction_max 0.989
_diffrn_reflns_limit_h_max       19
_diffrn_reflns_limit_h_min       -19
_diffrn_reflns_limit_k_max       16
_diffrn_reflns_limit_k_min       -16
_diffrn_reflns_limit_l_max       39
_diffrn_reflns_limit_l_min       -37
_diffrn_reflns_number            38617
_diffrn_reflns_point_group_measured_fraction_full 0.992
_diffrn_reflns_point_group_measured_fraction_max 0.989
_diffrn_reflns_theta_full        25.242
_diffrn_reflns_theta_max         27.483
_diffrn_reflns_theta_min         3.046
_diffrn_source                   'microfocus sealed X-ray tube'
_diffrn_source_type              'Incoatec I\ms'
_exptl_absorpt_coefficient_mu    0.402
_exptl_absorpt_correction_T_max  1.00000
_exptl_absorpt_correction_T_min  0.73155
_exptl_absorpt_correction_type   multi-scan
_exptl_absorpt_process_details
;
CrysAlisPro 1.171.38.43 (Rigaku Oxford Diffraction, 2015)
Empirical absorption correction using spherical harmonics,
 implemented in SCALE3 ABSPACK scaling algorithm.
;
_exptl_crystal_colour            colourless
_exptl_crystal_colour_primary    colourless
_exptl_crystal_density_diffrn    1.532
_exptl_crystal_description       block
_exptl_crystal_F_000             2784
_exptl_crystal_preparation       'As described in the journal'
_exptl_crystal_recrystallization_method THF:EtOH(1:1)
_exptl_crystal_size_max          0.14
_exptl_crystal_size_mid          0.13
_exptl_crystal_size_min          0.1
_refine_diff_density_max         1.193
_refine_diff_density_min         -0.946
_refine_diff_density_rms         0.073
_refine_ls_extinction_method     none
_refine_ls_goodness_of_fit_ref   1.009
_refine_ls_hydrogen_treatment    constr
_refine_ls_matrix_type           full
_refine_ls_number_parameters     931
_refine_ls_number_reflns         13195
_refine_ls_number_restraints     0
_refine_ls_restrained_S_all      1.009
_refine_ls_R_factor_all          0.0654
_refine_ls_R_factor_gt           0.0563
_refine_ls_shift/su_max          0.001
_refine_ls_shift/su_mean         0.000
_refine_ls_structure_factor_coef Fsqd
_refine_ls_weighting_details
'w=1/[\s^2^(Fo^2^)+(0.0800P)^2^+8.7300P] where P=(Fo^2^+2Fc^2^)/3'
_refine_ls_weighting_scheme      calc
_refine_ls_wR_factor_gt          0.1467
_refine_ls_wR_factor_ref         0.1541
_reflns_Friedel_coverage         0.000
_reflns_number_gt                11305
_reflns_number_total             13195
_reflns_threshold_expression     'I > 2\s(I)'
_iucr_refine_instructions_details
;

    316-tz-1z.res created by SHELXL-2014/7

TITL 316-tz-1z_a.res in P2(1)/c
REM Old TITL 316-TZ-1z in P21/c #14
REM SHELXT solution in P2(1)/c
REM R1 0.217, Rweak 0.124, Alpha 0.052, Orientation as input
REM Formula found by SHELXT: C48A N6 O22 P S7
CELL 0.71075 14.92255 13.055766 30.145484 90 97.7219 90
ZERR 4 0.000238 0.000203 0.0005 0 0.0016 0
LATT 1
SYMM -X,0.5+Y,0.5-Z
SFAC C H N O P S
UNIT 192 216 12 96 12 24
 
L.S. 13
PLAN  30
TEMP -173
FREE C47 S6
FREE C15B S2
BOND $H
LIST 4
MORE -1
CONF
fmap 2
acta
SHEL 7 0.77
OMIT -3 55
OMIT -1 0 2
OMIT -1 1 1
OMIT 0 1 1
OMIT 1 0 2
OMIT 0 0 4
OMIT 1 1 0
REM <olex2.extras>
REM <HklSrc "%.\\316-TZ-1z.hkl">
REM </olex2.extras>
 
WGHT    0.080000    8.730000
FVAR       0.48582   0.55796   0.50670   0.71750   0.80030   0.51707   0.75142
FVAR       0.51901   0.60962   0.73448   0.62689   0.61326   0.55046   0.78737
FVAR       0.23219
C1    1    0.546639    0.670938    0.432528    11.00000    0.01707    0.01872 =
         0.02867   -0.00388    0.00499   -0.00497
C2    1    0.624195    0.625835    0.454325    11.00000    0.02137    0.02383 =
         0.02773    0.00356    0.00099   -0.00422
AFIX  43
H2    2    0.621059    0.578561    0.478024    11.00000   -1.20000
AFIX   0
C3    1    0.706705    0.651191    0.440796    11.00000    0.01731    0.02613 =
         0.03182    0.00467   -0.00088   -0.00127
AFIX  43
H3    2    0.760989    0.621059    0.455073    11.00000   -1.20000
AFIX   0
C4    1    0.709238    0.720921    0.406244    11.00000    0.01843    0.02606 =
         0.03116    0.00194    0.00392   -0.00345
C5    1    0.630718    0.765270    0.384086    11.00000    0.02354    0.02576 =
         0.03047    0.00533    0.00174   -0.00258
AFIX  43
H5    2    0.633539    0.811985    0.360152    11.00000   -1.20000
AFIX   0
C6    1    0.548262    0.739731    0.397733    11.00000    0.01874    0.02191 =
         0.03323    0.00189   -0.00072   -0.00009
AFIX  43
H6    2    0.493721    0.769115    0.383363    11.00000   -1.20000
AFIX   0
PART 1
C7    1    0.822656    0.930776    0.431688    31.00000    0.04310    0.02877 =
         0.06588    0.00164   -0.00470    0.00227
AFIX  23
H7A   2    0.756904    0.931270    0.433495    31.00000   -1.20000
H7B   2    0.834184    0.969026    0.404668    31.00000   -1.20000
AFIX   0
PART 0
PART 2
C7B   1    0.866045    0.861487    0.462262   -31.00000    0.05373    0.09064 =
         0.04434   -0.01631    0.01387   -0.02278
AFIX  23
H7BA  2    0.924227    0.825433    0.470622   -31.00000   -1.20000
H7BB  2    0.819308    0.829109    0.478030   -31.00000   -1.20000
AFIX   0
PART 0
C8    1    0.875274    0.976625    0.473553    11.00000    0.09362    0.07453 =
         0.06679   -0.02152    0.01192   -0.02769
PART 1
AFIX 137
H8AA  2    0.865165    0.935556    0.499637    31.00000   -1.50000
H8AB  2    0.854745    1.046970    0.477408    31.00000   -1.50000
H8AC  2    0.939905    0.976968    0.470660    31.00000   -1.50000
AFIX 137
PART 0
PART 2
H8BD  2    0.911033    1.010112    0.452719   -31.00000   -1.50000
H8BE  2    0.905581    0.985018    0.504250   -31.00000   -1.50000
H8BF  2    0.815069    1.007856    0.470860   -31.00000   -1.50000
AFIX   0
PART 0
C9    1    0.476343    0.364958    0.436200    11.00000    0.02174    0.01918 =
         0.01925   -0.00048    0.00244   -0.00236
C10   1    0.561347    0.322139    0.439004    11.00000    0.01825    0.02950 =
         0.04461   -0.01038    0.00424   -0.00354
AFIX  43
H10   2    0.613328    0.360335    0.450786    11.00000   -1.20000
AFIX   0
C11   1    0.569640    0.223053    0.424438    11.00000    0.02028    0.03119 =
         0.05802   -0.01270    0.00842   -0.00002
AFIX  43
H11   2    0.627693    0.192454    0.425735    11.00000   -1.20000
AFIX   0
C12   1    0.492502    0.167920    0.407794    11.00000    0.03048    0.02088 =
         0.03150   -0.00547    0.00793   -0.00322
C13   1    0.407474    0.211314    0.405549    11.00000    0.02437    0.02365 =
         0.03842   -0.00089   -0.00545   -0.00528
AFIX  43
H13   2    0.355280    0.173177    0.394025    11.00000   -1.20000
AFIX   0
C14   1    0.399172    0.310792    0.420247    11.00000    0.01958    0.02184 =
         0.04184    0.00296   -0.00336   -0.00124
AFIX  43
H14   2    0.341223    0.341437    0.419384    11.00000   -1.20000
AFIX   0
PART 1
C15   1    0.616982   -0.006746    0.459203   121.00000    0.06370    0.04195 =
         0.08274    0.01044   -0.02654   -0.00733
AFIX  23
H15A  2    0.625837    0.061749    0.473195   121.00000   -1.20000
H15B  2    0.661926   -0.016152    0.438195   121.00000   -1.20000
AFIX   0
PART 0
PART 2
C15B  1    0.559181   -0.029693    0.467601  -121.00000    0.14938    0.10417 =
         0.06826    0.03317    0.04703    0.08591
AFIX  23
H15C  2    0.553030    0.036954    0.482563  -121.00000   -1.20000
H15D  2    0.500535   -0.065825    0.466164  -121.00000   -1.20000
AFIX   0
PART 0
C16   1    0.626614   -0.088582    0.494052    11.00000    0.08049    0.07575 =
         0.04955    0.00196    0.00263    0.02285
PART 1
AFIX 137
H16A  2    0.570511   -0.093743    0.507480   121.00000   -1.50000
H16B  2    0.676801   -0.071565    0.517301   121.00000   -1.50000
H16C  2    0.638857   -0.154201    0.480267   121.00000   -1.50000
AFIX 137
PART 0
PART 2
H16D  2    0.686249   -0.058584    0.492333  -121.00000   -1.50000
H16E  2    0.625274   -0.159059    0.482793  -121.00000   -1.50000
H16F  2    0.614771   -0.088670    0.525249  -121.00000   -1.50000
AFIX   0
PART 0
C17   1    0.325664    0.671314    0.300645    11.00000    0.02662    0.03067 =
         0.03076    0.01085    0.00488    0.00596
C18   1    0.367120    0.616906    0.269566    11.00000    0.04635    0.02297 =
         0.04988    0.00269    0.01900    0.00196
AFIX  43
H18   2    0.349902    0.548325    0.262128    11.00000   -1.20000
AFIX   0
C19   1    0.434509    0.665013    0.249515    11.00000    0.05274    0.02567 =
         0.05199    0.00330    0.02755    0.00484
AFIX  43
H19   2    0.463713    0.629949    0.227851    11.00000   -1.20000
AFIX   0
C20   1    0.458605    0.765160    0.261595    11.00000    0.03906    0.02845 =
         0.03511    0.00850    0.01156    0.00394
C21   1    0.414904    0.819880    0.291802    11.00000    0.04114    0.02712 =
         0.03278    0.00087    0.00602    0.00064
AFIX  43
H21   2    0.431341    0.888797    0.298998    11.00000   -1.20000
AFIX   0
C22   1    0.346962    0.772465    0.311293    11.00000    0.03774    0.03541 =
         0.02792   -0.00043    0.00748    0.00721
AFIX  43
H22   2    0.315375    0.808762    0.331685    11.00000   -1.20000
AFIX   0
C23   1    0.436592    0.909477    0.175348    11.00000    0.11011    0.06009 =
         0.03099    0.00860   -0.00643   -0.01606
AFIX  23
H23A  2    0.390680    0.857458    0.180278    11.00000   -1.20000
H23B  2    0.468729    0.886138    0.150507    11.00000   -1.20000
AFIX   0
C24   1    0.392829    1.009556    0.164329    11.00000    0.08335    0.08087 =
         0.06382    0.03126   -0.00795   -0.00363
AFIX 137
H24A  2    0.359025    1.030340    0.188554    11.00000   -1.50000
H24B  2    0.351291    1.003680    0.136363    11.00000   -1.50000
H24C  2    0.439161    1.060987    0.160765    11.00000   -1.50000
AFIX   0
C25   1    0.194641    0.394809    0.305957    11.00000    0.02638    0.03428 =
         0.04052   -0.01418   -0.00590    0.00145
C26   1    0.171000    0.418422    0.261941    11.00000    0.04458    0.12198 =
         0.02808   -0.01349    0.00614   -0.03539
AFIX  43
H26   2    0.207429    0.463447    0.247230    11.00000   -1.20000
AFIX   0
C27   1    0.093152    0.376024    0.238813    11.00000    0.04243    0.12701 =
         0.02794   -0.01643    0.00202   -0.02961
AFIX  43
H27   2    0.076073    0.392078    0.208103    11.00000   -1.20000
AFIX   0
C28   1    0.041339    0.311694    0.259931    11.00000    0.03065    0.05615 =
         0.04439   -0.01853   -0.00742   -0.00144
C29   1    0.066161    0.285777    0.304377    11.00000    0.05295    0.03984 =
         0.06617    0.01265   -0.02466   -0.01597
AFIX  43
H29   2    0.030211    0.239778    0.318876    11.00000   -1.20000
AFIX   0
C30   1    0.144447    0.327908    0.327602    11.00000    0.05212    0.03304 =
         0.06006    0.01389   -0.02755   -0.01001
AFIX  43
H30   2    0.162876    0.310538    0.358065    11.00000   -1.20000
AFIX   0
C31   1    0.023847    0.133807    0.186918    11.00000    0.07747    0.07400 =
         0.05597    0.00002    0.01676   -0.02630
AFIX  23
H31A  2    0.080602    0.172959    0.194685    11.00000   -1.20000
H31B  2   -0.006935    0.159885    0.157983    11.00000   -1.20000
AFIX   0
C32   1    0.045187    0.022596    0.182613    11.00000    0.08625    0.05414 =
         0.11252    0.01221   -0.00682   -0.01033
AFIX 137
H32A  2    0.072107   -0.004066    0.211774    11.00000   -1.50000
H32B  2    0.087973    0.014088    0.160908    11.00000   -1.50000
H32C  2   -0.010539   -0.015096    0.172337    11.00000   -1.50000
AFIX   0
C33   1    0.167196    0.743080    0.438780    11.00000    0.02221    0.02448 =
         0.03517   -0.00473    0.00803   -0.00144
C34   1    0.247165    0.797455    0.438315    11.00000    0.01932    0.02680 =
         0.06280   -0.00157    0.00425   -0.00039
AFIX  43
H34   2    0.303892    0.767385    0.449103    11.00000   -1.20000
AFIX   0
C35   1    0.242092    0.897165    0.421636    11.00000    0.02291    0.02702 =
         0.06288   -0.00354    0.00568   -0.00348
AFIX  43
H35   2    0.295697    0.935754    0.420466    11.00000   -1.20000
AFIX   0
C36   1    0.158550    0.939492    0.406814    11.00000    0.02758    0.02826 =
         0.03850   -0.00024    0.00398    0.00082
C37   1    0.079600    0.884214    0.407489    11.00000    0.02230    0.04191 =
         0.05276    0.00807   -0.00092    0.00166
AFIX  43
H37   2    0.022711    0.914115    0.396872    11.00000   -1.20000
AFIX   0
C38   1    0.084281    0.785476    0.423692    11.00000    0.01975    0.04051 =
         0.05149    0.00549    0.00295   -0.00456
AFIX  43
H38   2    0.030559    0.746844    0.424448    11.00000   -1.20000
AFIX   0
C39   1    0.187555    1.035603    0.310029    11.00000    0.06981    0.05520 =
         0.05482   -0.00338    0.00638   -0.02189
AFIX  23
H39A  2    0.124920    1.055912    0.298302    11.00000   -1.20000
H39B  2    0.190462    0.959945    0.311898    11.00000   -1.20000
AFIX   0
C40   1    0.253277    1.075438    0.279817    11.00000    0.07063    0.10367 =
         0.06548   -0.00139    0.02111   -0.02538
AFIX 137
H40A  2    0.246975    1.149926    0.276840    11.00000   -1.50000
H40B  2    0.240066    1.043534    0.250235    11.00000   -1.50000
H40C  2    0.315243    1.058583    0.292863    11.00000   -1.50000
AFIX   0
C41   1    0.090646    0.423138    0.453784    11.00000    0.01737    0.03243 =
         0.02708    0.00442    0.00318   -0.00685
PART 1
C42   1    0.020142    0.478171    0.434155   131.00000    0.02364    0.05307 =
         0.05897    0.02815   -0.00446   -0.00765
AFIX  43
H42   2    0.028072    0.547673    0.426200   131.00000   -1.20000
AFIX   0
PART 0
PART 2
C42B  1    0.014627    0.489076    0.453151  -131.00000    0.02390    0.02349 =
         0.05695    0.00270    0.02145   -0.00313
AFIX  43
H42B  2    0.021663    0.559504    0.460751  -131.00000   -1.20000
AFIX   0
PART 0
PART 1
C43   1   -0.065122    0.432027    0.425547   131.00000    0.01809    0.04950 =
         0.05141    0.01560   -0.00340   -0.00389
AFIX  43
H43   2   -0.115578    0.472108    0.413291   131.00000   -1.20000
AFIX   0
PART 0
PART 2
C43B  1   -0.070165    0.446356    0.440990  -131.00000    0.02240    0.04031 =
         0.06722    0.00580    0.02015   -0.00116
AFIX  43
H43B  2   -0.122823    0.488041    0.437477  -131.00000   -1.20000
AFIX   0
PART 0
C44   1   -0.076693    0.337247    0.433786    11.00000    0.01939    0.04973 =
         0.03591   -0.00759    0.00585   -0.00907
PART 1
C45   1   -0.003819    0.272967    0.455464   131.00000    0.02925    0.02604 =
         0.06702    0.00229   -0.00589   -0.00618
AFIX  43
H45   2   -0.014336    0.203919    0.463265   131.00000   -1.20000
AFIX   0
PART 0
PART 2
C45B  1   -0.003505    0.283854    0.433347  -131.00000    0.03088    0.03110 =
         0.06215   -0.00901   -0.00395   -0.01169
AFIX  43
H45B  2   -0.007861    0.213711    0.424951  -131.00000   -1.20000
AFIX   0
PART 0
PART 1
C46   1    0.079985    0.315725    0.464113   131.00000    0.02364    0.02276 =
         0.05524    0.00608    0.00374   -0.00351
AFIX  43
H46   2    0.130422    0.275964    0.476659   131.00000   -1.20000
AFIX   0
PART 0
PART 2
C46B  1    0.082542    0.328564    0.445175  -131.00000    0.01941    0.02328 =
         0.08167    0.00768    0.00279   -0.00228
AFIX  43
H46B  2    0.135104    0.286976    0.446686  -131.00000   -1.20000
AFIX   0
PART 0
PART 1
C47   1   -0.166017    0.197767    0.346763    91.00000    0.05000    0.10166 =
         0.07799   -0.01074   -0.00331   -0.02134
AFIX  23
H47A  2   -0.110637    0.237843    0.344177    91.00000   -1.20000
H47B  2   -0.218873    0.237876    0.333022    91.00000   -1.20000
AFIX   0
PART 0
PART 2
C47A  1   -0.236549    0.178905    0.342295   -91.00000    0.04783    0.08070 =
         0.04737   -0.02035    0.01113   -0.03128
AFIX  23
H47C  2   -0.296358    0.182968    0.352970   -91.00000   -1.20000
H47D  2   -0.244209    0.201850    0.310711   -91.00000   -1.20000
AFIX   0
C48A  1   -0.207540    0.075779    0.344198   111.00000    0.15470    0.10739 =
         0.10260   -0.02213    0.00583   -0.03825
AFIX 137
H48A  2   -0.155046    0.068489    0.328099   111.00000   -1.50000
H48B  2   -0.256680    0.031801    0.330298   111.00000   -1.50000
H48C  2   -0.190775    0.055527    0.375517   111.00000   -1.50000
AFIX   0
PART 0
PART 1
C48   1   -0.162308    0.095106    0.322428  -111.00000    0.04938    0.05151 =
         0.04786   -0.01673    0.01199   -0.01073
AFIX 137
H48D  2   -0.111529    0.054477    0.337065  -111.00000   -1.50000
H48E  2   -0.154105    0.107486    0.291163  -111.00000   -1.50000
H48F  2   -0.218919    0.057706    0.323494  -111.00000   -1.50000
AFIX   0
PART 0
N1    3    0.324134    0.555448    0.462374    11.00000    0.01752    0.02875 =
         0.02415   -0.00239    0.00264   -0.00506
N2    3    0.380882    0.544457    0.380787    11.00000    0.01819    0.02197 =
         0.02641    0.00097    0.00304   -0.00047
N3    3    0.201209    0.539694    0.387934    11.00000    0.01701    0.02619 =
         0.02826    0.00263    0.00029   -0.00180
O1    4    0.463355    0.650779    0.447712    11.00000    0.01741    0.02047 =
         0.03214   -0.00415    0.00558   -0.00418
PART 1
O2    4    0.879708    0.688075    0.410820   151.00000    0.01836    0.02103 =
         0.05339   -0.00312    0.00783   -0.00024
PART 0
PART 2
O2A   4    0.874605    0.665839    0.398869  -151.00000    0.02527    0.03582 =
         0.08295    0.00797    0.02039    0.00234
PART 0
PART 1
O3    4    0.804666    0.812397    0.350814    61.00000    0.03189    0.04951 =
         0.04956    0.01987    0.00928   -0.00603
PART 0
PART 2
O3B   4    0.804258    0.774837    0.344308   -61.00000    0.02752    0.06480 =
         0.03665    0.00747    0.01191   -0.00579
PART 0
PART 1
O4    4    0.856843    0.825868    0.430805    21.00000    0.02457    0.03210 =
         0.05295    0.00937   -0.00019   -0.00514
PART 0
PART 2
O4B   4    0.839056    0.859525    0.413198   -21.00000    0.03295    0.04207 =
         0.04427    0.00417    0.00791   -0.01604
PART 0
O5    4    0.474826    0.465665    0.451274    11.00000    0.01977    0.01937 =
         0.02815   -0.00169   -0.00198   -0.00114
PART 1
O6    4    0.421740    0.003347    0.369294    71.00000    0.05587    0.03232 =
         0.04940   -0.01310   -0.00879   -0.00525
PART 0
PART 2
O6B   4    0.420974   -0.014391    0.388377   -71.00000    0.04994    0.02418 =
         0.04589   -0.00671   -0.00161   -0.00499
PART 0
PART 1
O7    4    0.582627    0.036453    0.367261    51.00000    0.07771    0.04599 =
         0.13281   -0.04330    0.07229   -0.01651
PART 0
PART 2
O7B   4    0.535605    0.037415    0.347356   -51.00000    0.07964    0.02714 =
         0.05640   -0.00658    0.02667   -0.01226
PART 0
PART 1
O8    4    0.523620   -0.017297    0.435438    41.00000    0.04245    0.02774 =
         0.05625   -0.01099    0.00600    0.00233
PART 0
PART 2
O8B   4    0.578211   -0.010745    0.421940   -41.00000    0.04542    0.03365 =
         0.06141   -0.00849    0.00269    0.01461
PART 0
O9    4    0.257771    0.625836    0.321679    11.00000    0.02538    0.03734 =
         0.03214    0.01323    0.00600    0.00729
O10   4    0.611939    0.864833    0.272243    11.00000    0.04892    0.05850 =
         0.06830    0.02598    0.00834   -0.00799
O11   4    0.573881    0.759719    0.204164    11.00000    0.08428    0.04246 =
         0.09214   -0.00042    0.06328   -0.00256
O12   4    0.500267    0.923431    0.215933    11.00000    0.06029    0.03093 =
         0.03267    0.00638    0.00713   -0.00472
O13   4    0.275312    0.434551    0.329148    11.00000    0.02535    0.03215 =
         0.03760   -0.01190   -0.00595    0.00244
O14   4   -0.082777    0.314207    0.190792    11.00000    0.05552    0.06956 =
         0.07582   -0.01624   -0.03590    0.00973
O15   4   -0.125509    0.252398    0.260631    11.00000    0.04436    0.26094 =
         0.07486   -0.07889    0.01073   -0.04383
O16   4   -0.034126    0.148258    0.221458    11.00000    0.05626    0.06899 =
         0.05255   -0.00817   -0.00114   -0.02231
O17   4    0.166513    0.644798    0.456837    11.00000    0.02348    0.02655 =
         0.04157   -0.00084    0.01354   -0.00154
O18   4    0.059149    1.090431    0.372825    11.00000    0.03865    0.04564 =
         0.07205    0.01485   -0.00076    0.00764
O19   4    0.194742    1.131257    0.426044    11.00000    0.05745    0.03104 =
         0.06760   -0.00351   -0.00388    0.00398
O20   4    0.214788    1.081148    0.354100    11.00000    0.04025    0.03980 =
         0.05584    0.00446    0.00272   -0.00923
O21   4    0.178413    0.461596    0.465587    11.00000    0.01830    0.03220 =
         0.03368    0.00966   -0.00109   -0.00760
PART 1
O22   4   -0.247271    0.355703    0.402571   141.00000    0.02161    0.08251 =
         0.08045    0.01873   -0.01187   -0.01584
PART 0
PART 2
O22B  4   -0.240943    0.374576    0.434870  -141.00000    0.06358    0.13509 =
         0.09786    0.00113   -0.02581   -0.06843
PART 0
PART 1
O23   4   -0.208417    0.233150    0.466184  -101.00000    0.03915    0.06776 =
         0.02259   -0.02821    0.01371   -0.02655
PART 0
PART 2
O23B  4   -0.203365    0.211049    0.448703   101.00000    0.04247    0.06614 =
         0.13200    0.01691    0.00750   -0.03303
PART 0
PART 1
O24   4   -0.173151    0.178488    0.393227    81.00000    0.04746    0.05108 =
         0.06172   -0.00666    0.00289   -0.01731
PART 0
PART 2
O24B  4   -0.171808    0.251395    0.369982   -81.00000    0.09786    0.14206 =
         0.05282   -0.02997   -0.01620   -0.07991
PART 0
P1    5    0.404501    0.552318    0.433235    11.00000    0.01539    0.01808 =
         0.02467   -0.00082    0.00230   -0.00270
P2    5    0.279529    0.536917    0.357451    11.00000    0.01987    0.02148 =
         0.02424    0.00052    0.00065    0.00070
P3    5    0.221940    0.551596    0.440439    11.00000    0.01584    0.02163 =
         0.02745    0.00167    0.00351   -0.00307
S1    6    0.815279    0.753569    0.390846    11.00000    0.01934    0.03457 =
         0.03920    0.00746    0.00643   -0.00334
S2    6    0.504399    0.041552    0.389783    11.00000    0.03720    0.02707 =
         0.05233   -0.01289    0.01062   -0.00182
S3    6    0.546967    0.825226    0.237671    11.00000    0.04779    0.03204 =
         0.05180    0.01023    0.02129    0.00000
S4    6   -0.059113    0.258772    0.230912    11.00000    0.03164    0.08783 =
         0.04969   -0.02629   -0.00571   -0.01032
S5    6    0.150924    1.069003    0.390393    11.00000    0.03521    0.03127 =
         0.05350    0.00538    0.00312    0.00398
S6    6   -0.185184    0.282575    0.420432    11.00000    0.02243    0.07202 =
         0.06885   -0.02064    0.00536   -0.01624
HKLF 4
 
REM  316-tz-1z_a.res in P2(1)/c
REM R1 =  0.0563 for   11305 Fo > 4sig(Fo)  and  0.0654 for all   13195 data
REM    931 parameters refined using      0 restraints
 
END  
     
WGHT      0.0722      8.9917 

REM Highest difference peak  1.193,  deepest hole -0.946,  1-sigma level  0.073
Q1    1  -0.0797  0.1758  0.2594  11.00000  0.05    1.19
Q2    1   0.5133  0.0215  0.4146  11.00000  0.05    1.06
Q3    1  -0.1928  0.3397  0.4292  11.00000  0.05    0.83
Q4    1  -0.0165  0.1882  0.1923  11.00000  0.05    0.82
Q5    1  -0.2973  0.0546  0.3290  11.00000  0.05    0.81
Q6    1   0.0805  0.0794  0.2029  11.00000  0.05    0.79
Q7    1   0.6052  0.0660  0.3361  11.00000  0.05    0.77
Q8    1  -0.2156  0.3397  0.3700  11.00000  0.05    0.75
Q9    1   0.4725  0.6784  0.2716  11.00000  0.05    0.58
Q10   1   0.5712  0.8586  0.2563  11.00000  0.05    0.58
Q11   1   0.4014  0.6271  0.2917  11.00000  0.05    0.55
Q12   1   0.2135  1.1155  0.3966  11.00000  0.05    0.54
Q13   1  -0.0214  0.2212  0.2343  11.00000  0.05    0.53
Q14   1   0.4990  0.8577  0.2338  11.00000  0.05    0.52
Q15   1  -0.2268  0.3346  0.2945  11.00000  0.05    0.51
Q16   1   0.7997  0.7216  0.3654  11.00000  0.05    0.51
Q17   1  -0.1744  0.2985  0.3319  11.00000  0.05    0.51
Q18   1  -0.1112  0.3358  0.2139  11.00000  0.05    0.50
Q19   1  -0.0386  0.3068  0.2286  11.00000  0.05    0.47
Q20   1  -0.1035  0.2955  0.2507  11.00000  0.05    0.43
Q21   1   0.1132  1.0501  0.3644  11.00000  0.05    0.40
Q22   1  -0.2214  0.2670  0.3835  11.00000  0.05    0.39
Q23   1   0.1410  1.0505  0.3299  11.00000  0.05    0.39
Q24   1   0.3292  0.5452  0.3709  11.00000  0.05    0.39
Q25   1  -0.0188  0.0938  0.1853  11.00000  0.05    0.37
Q26   1   0.1516  0.9916  0.3989  11.00000  0.05    0.37
Q27   1  -0.2377  0.4026  0.4430  11.00000  0.05    0.36
Q28   1   0.2773  0.5567  0.4522  11.00000  0.05    0.36
Q29   1   0.5274  0.7994  0.1960  11.00000  0.05    0.36
Q30   1   0.6013  0.7750  0.2260  11.00000  0.05    0.36

  REM The information below was added by Olex2.
  REM
  REM R1 = 0.0563 for 11305 Fo > 4sig(Fo) and 0.0654 for all 39741 data
  REM n/a parameters refined using n/a restraints
  REM Highest difference peak 1.19, deepest hole -0.95
  REM Mean Shift 0, Max Shift -0.001.
  
  REM +++ Tabular Listing of Refinement Information +++
  REM R1_all = 0.0654
  REM R1_gt = 0.0563
  REM wR_ref = 0.1541
  REM GOOF = 1.009
  REM Shift_max = -0.001
  REM Shift_mean = 0
  REM Reflections_all = 39741
  REM Reflections_gt = 11305
  REM Parameters = n/a
  REM Hole = -0.95
  REM Peak = 1.19
  REM Flack = n/a
  
  
;
_cod_data_source_file            c7py00189d1.cif
_cod_data_source_block           316-tz-1z
_cod_original_cell_volume        5819.85(16)
_cod_database_code               1545750
_chemical_oxdiff_formula         'C48 H36 N3 O24 P3 S6'
_shelx_space_group_comment
;
The symmetry employed for this shelxl refinement is uniquely defined
by the following loop, which should always be used as a source of
symmetry information in preference to the above space-group names.
They are only intended as comments.
;
_reflns_odcompleteness_completeness 98.97
_reflns_odcompleteness_iscentric 1
_reflns_odcompleteness_theta     27.42
_olex2_refinement_description
;
1. Fixed Uiso
 At 1.2 times of:
  All C(H) groups, All C(H,H) groups
 At 1.5 times of:
  All C(H,H,H) groups, All C(H,H,H,H,H,H) groups
2. Others
 Sof(O4B)=1-FVAR(1)
 Sof(O4)=FVAR(1)
 Sof(C7B)=Sof(H7BA)=Sof(H7BB)=Sof(H8BD)=Sof(H8BE)=Sof(H8BF)=1-FVAR(2)
 Sof(C7)=Sof(H7A)=Sof(H7B)=Sof(H8AA)=Sof(H8AB)=Sof(H8AC)=FVAR(2)
 Sof(O8B)=1-FVAR(3)
 Sof(O8)=FVAR(3)
 Sof(O7B)=1-FVAR(4)
 Sof(O7)=FVAR(4)
 Sof(O3B)=1-FVAR(5)
 Sof(O3)=FVAR(5)
 Sof(O6B)=1-FVAR(6)
 Sof(O6)=FVAR(6)
 Sof(O24B)=1-FVAR(7)
 Sof(O24)=FVAR(7)
 Sof(C47A)=Sof(H47C)=Sof(H47D)=1-FVAR(8)
 Sof(C47)=Sof(H47A)=Sof(H47B)=FVAR(8)
 Sof(O23)=1-FVAR(9)
 Sof(O23B)=FVAR(9)
 Sof(C48)=Sof(H48D)=Sof(H48E)=Sof(H48F)=1-FVAR(10)
 Sof(C48A)=Sof(H48A)=Sof(H48B)=Sof(H48C)=FVAR(10)
 Sof(C15B)=Sof(H15C)=Sof(H15D)=Sof(H16D)=Sof(H16E)=Sof(H16F)=1-FVAR(11)
 Sof(C15)=Sof(H15A)=Sof(H15B)=Sof(H16A)=Sof(H16B)=Sof(H16C)=FVAR(11)
 Sof(C42B)=Sof(H42B)=Sof(C43B)=Sof(H43B)=Sof(C45B)=Sof(H45B)=Sof(C46B)=
 Sof(H46B)=1-FVAR(12)
 Sof(C42)=Sof(H42)=Sof(C43)=Sof(H43)=Sof(C45)=Sof(H45)=Sof(C46)=Sof(H46)=
 FVAR(12)
 Sof(O22B)=1-FVAR(13)
 Sof(O22)=FVAR(13)
 Sof(O2A)=1-FVAR(14)
 Sof(O2)=FVAR(14)
3.a Secondary CH2 refined with riding coordinates:
 C7(H7A,H7B), C7B(H7BA,H7BB), C15(H15A,H15B), C15B(H15C,H15D), C23(H23A,H23B),
 C31(H31A,H31B), C39(H39A,H39B), C47(H47A,H47B), C47A(H47C,H47D)
3.b Aromatic/amide H refined with riding coordinates:
 C2(H2), C3(H3), C5(H5), C6(H6), C10(H10), C11(H11), C13(H13), C14(H14),
 C18(H18), C19(H19), C21(H21), C22(H22), C26(H26), C27(H27), C29(H29), C30(H30),
  C34(H34), C35(H35), C37(H37), C38(H38), C42(H42), C42B(H42B), C43(H43),
 C43B(H43B), C45(H45), C45B(H45B), C46(H46), C46B(H46B)
3.c Idealised Me refined as rotating group:
 C8(H8AA,H8AB,H8AC), C8(H8BD,H8BE,H8BF), C16(H16A,H16B,H16C), C16(H16D,H16E,
 H16F), C24(H24A,H24B,H24C), C32(H32A,H32B,H32C), C40(H40A,H40B,H40C),
 C48A(H48A,H48B,H48C), C48(H48D,H48E,H48F)
;
_shelx_shelxl_version_number     2014/7
_olex2_submission_original_sample_id 316-331-1
_olex2_submission_special_instructions 'No special instructions were received'
_oxdiff_exptl_absorpt_empirical_details
;
Empirical correction (ABSPACK) includes:
- Absorption correction using spherical harmonics
- Frame scaling
- Detector area scaling
;
_oxdiff_exptl_absorpt_empirical_full_max 1.702
_oxdiff_exptl_absorpt_empirical_full_min 0.699
loop_
_space_group_symop_operation_xyz
'x, y, z'
'-x, y+1/2, -z+1/2'
'-x, -y, -z'
'x, -y-1/2, z-1/2'
loop_
_atom_site_label
_atom_site_type_symbol
_atom_site_fract_x
_atom_site_fract_y
_atom_site_fract_z
_atom_site_U_iso_or_equiv
_atom_site_adp_type
_atom_site_occupancy
_atom_site_site_symmetry_order
_atom_site_calc_flag
_atom_site_refinement_flags_posn
_atom_site_refinement_flags_occupancy
_atom_site_disorder_assembly
_atom_site_disorder_group
C1 C 0.54664(14) 0.67094(17) 0.43253(8) 0.0213(4) Uani 1 1 d . . . .
C2 C 0.62420(15) 0.62583(18) 0.45433(8) 0.0245(5) Uani 1 1 d . . . .
H2 H 0.6211 0.5786 0.4780 0.029 Uiso 1 1 calc R . . .
C3 C 0.70670(15) 0.65119(19) 0.44080(8) 0.0255(5) Uani 1 1 d . . . .
H3 H 0.7610 0.6211 0.4551 0.031 Uiso 1 1 calc R . . .
C4 C 0.70924(15) 0.72092(19) 0.40624(8) 0.0252(5) Uani 1 1 d . . . .
C5 C 0.63072(16) 0.76527(19) 0.38409(8) 0.0268(5) Uani 1 1 d . . . .
H5 H 0.6335 0.8120 0.3602 0.032 Uiso 1 1 calc R . . .
C6 C 0.54826(15) 0.73973(18) 0.39773(8) 0.0250(5) Uani 1 1 d . . . .
H6 H 0.4937 0.7691 0.3834 0.030 Uiso 1 1 calc R . . .
C7 C 0.8227(4) 0.9308(5) 0.4317(3) 0.047(2) Uani 0.507(10) 1 d . P A 1
H7A H 0.7569 0.9313 0.4335 0.056 Uiso 0.507(10) 1 calc R P A 1
H7B H 0.8342 0.9690 0.4047 0.056 Uiso 0.507(10) 1 calc R P A 1
C7B C 0.8660(6) 0.8615(8) 0.4623(3) 0.062(3) Uani 0.493(10) 1 d . P A 2
H7BA H 0.9242 0.8254 0.4706 0.075 Uiso 0.493(10) 1 calc R P A 2
H7BB H 0.8193 0.8291 0.4780 0.075 Uiso 0.493(10) 1 calc R P A 2
C8 C 0.8753(4) 0.9766(4) 0.47355(16) 0.0782(13) Uani 1 1 d . . . .
H8AA H 0.8652 0.9356 0.4996 0.117 Uiso 0.507(10) 1 calc GR P A 1
H8AB H 0.8547 1.0470 0.4774 0.117 Uiso 0.507(10) 1 calc GR P A 1
H8AC H 0.9399 0.9770 0.4707 0.117 Uiso 0.507(10) 1 calc GR P A 1
H8BD H 0.9110 1.0101 0.4527 0.117 Uiso 0.493(10) 1 calc GR P A 2
H8BE H 0.9056 0.9850 0.5043 0.117 Uiso 0.493(10) 1 calc GR P A 2
H8BF H 0.8151 1.0079 0.4709 0.117 Uiso 0.493(10) 1 calc GR P A 2
C9 C 0.47634(15) 0.36496(17) 0.43620(7) 0.0201(4) Uani 1 1 d . . . .
C10 C 0.56135(16) 0.3221(2) 0.43900(9) 0.0308(5) Uani 1 1 d . . . .
H10 H 0.6133 0.3603 0.4508 0.037 Uiso 1 1 calc R . . .
C11 C 0.56964(17) 0.2231(2) 0.42444(10) 0.0362(6) Uani 1 1 d . . . .
H11 H 0.6277 0.1925 0.4257 0.043 Uiso 1 1 calc R . . .
C12 C 0.49250(17) 0.16792(18) 0.40779(8) 0.0273(5) Uani 1 1 d . . . .
C13 C 0.40747(17) 0.21131(19) 0.40555(9) 0.0297(5) Uani 1 1 d . . . .
H13 H 0.3553 0.1732 0.3940 0.036 Uiso 1 1 calc R . . .
C14 C 0.39917(16) 0.31079(19) 0.42025(9) 0.0284(5) Uani 1 1 d . . . .
H14 H 0.3412 0.3414 0.4194 0.034 Uiso 1 1 calc R . . .
C15 C 0.6170(8) -0.0067(5) 0.4592(4) 0.066(3) Uani 0.61(2) 1 d . P B 1
H15A H 0.6258 0.0617 0.4732 0.079 Uiso 0.61(2) 1 calc R P B 1
H15B H 0.6619 -0.0162 0.4382 0.079 Uiso 0.61(2) 1 calc R P B 1
C15B C 0.559(2) -0.030(2) 0.4676(6) 0.104(10) Uani 0.39(2) 1 d . P B 2
H15C H 0.5530 0.0370 0.4826 0.125 Uiso 0.39(2) 1 calc R P B 2
H15D H 0.5005 -0.0658 0.4662 0.125 Uiso 0.39(2) 1 calc R P B 2
C16 C 0.6266(3) -0.0886(4) 0.49405(13) 0.0692(11) Uani 1 1 d . . . .
H16A H 0.5705 -0.0937 0.5075 0.104 Uiso 0.61(2) 1 calc GR P B 1
H16B H 0.6768 -0.0716 0.5173 0.104 Uiso 0.61(2) 1 calc GR P B 1
H16C H 0.6389 -0.1542 0.4803 0.104 Uiso 0.61(2) 1 calc GR P B 1
H16D H 0.6862 -0.0586 0.4923 0.104 Uiso 0.39(2) 1 calc GR P B 2
H16E H 0.6253 -0.1591 0.4828 0.104 Uiso 0.39(2) 1 calc GR P B 2
H16F H 0.6148 -0.0887 0.5252 0.104 Uiso 0.39(2) 1 calc GR P B 2
C17 C 0.32566(17) 0.6713(2) 0.30065(9) 0.0293(5) Uani 1 1 d . . . .
C18 C 0.3671(2) 0.6169(2) 0.26957(10) 0.0386(6) Uani 1 1 d . . . .
H18 H 0.3499 0.5483 0.2621 0.046 Uiso 1 1 calc R . . .
C19 C 0.4345(2) 0.6650(2) 0.24952(11) 0.0416(7) Uani 1 1 d . . . .
H19 H 0.4637 0.6299 0.2279 0.050 Uiso 1 1 calc R . . .
C20 C 0.45861(19) 0.7652(2) 0.26159(9) 0.0336(6) Uani 1 1 d . . . .
C21 C 0.41490(19) 0.8199(2) 0.29180(9) 0.0336(6) Uani 1 1 d . . . .
H21 H 0.4313 0.8888 0.2990 0.040 Uiso 1 1 calc R . . .
C22 C 0.34696(19) 0.7725(2) 0.31129(9) 0.0334(6) Uani 1 1 d . . . .
H22 H 0.3154 0.8088 0.3317 0.040 Uiso 1 1 calc R . . .
C23 C 0.4366(3) 0.9095(3) 0.17535(11) 0.0685(12) Uani 1 1 d . . . .
H23A H 0.3907 0.8575 0.1803 0.082 Uiso 1 1 calc R . . .
H23B H 0.4687 0.8861 0.1505 0.082 Uiso 1 1 calc R . . .
C24 C 0.3928(3) 1.0096(4) 0.16433(15) 0.0776(13) Uani 1 1 d . . . .
H24A H 0.3590 1.0303 0.1886 0.116 Uiso 1 1 calc GR . . .
H24B H 0.3513 1.0037 0.1364 0.116 Uiso 1 1 calc GR . . .
H24C H 0.4392 1.0610 0.1608 0.116 Uiso 1 1 calc GR . . .
C25 C 0.19464(18) 0.3948(2) 0.30596(10) 0.0347(6) Uani 1 1 d . . . .
C26 C 0.1710(2) 0.4184(4) 0.26194(11) 0.0648(12) Uani 1 1 d . . . .
H26 H 0.2074 0.4634 0.2472 0.078 Uiso 1 1 calc R . . .
C27 C 0.0932(2) 0.3760(4) 0.23881(11) 0.0660(12) Uani 1 1 d . . . .
H27 H 0.0761 0.3921 0.2081 0.079 Uiso 1 1 calc R . . .
C28 C 0.0413(2) 0.3117(3) 0.25993(11) 0.0449(7) Uani 1 1 d . . . .
C29 C 0.0662(2) 0.2858(3) 0.30438(13) 0.0560(10) Uani 1 1 d . . . .
H29 H 0.0302 0.2398 0.3189 0.067 Uiso 1 1 calc R . . .
C30 C 0.1444(2) 0.3279(2) 0.32760(12) 0.0516(9) Uani 1 1 d . . . .
H30 H 0.1629 0.3105 0.3581 0.062 Uiso 1 1 calc R . . .
C31 C 0.0238(3) 0.1338(4) 0.18692(14) 0.0684(11) Uani 1 1 d . . . .
H31A H 0.0806 0.1730 0.1947 0.082 Uiso 1 1 calc R . . .
H31B H -0.0069 0.1599 0.1580 0.082 Uiso 1 1 calc R . . .
C32 C 0.0452(4) 0.0226(4) 0.1826(2) 0.0861(15) Uani 1 1 d . . . .
H32A H 0.0721 -0.0041 0.2118 0.129 Uiso 1 1 calc GR . . .
H32B H 0.0880 0.0141 0.1609 0.129 Uiso 1 1 calc GR . . .
H32C H -0.0105 -0.0151 0.1723 0.129 Uiso 1 1 calc GR . . .
C33 C 0.16720(16) 0.74308(19) 0.43878(9) 0.0269(5) Uani 1 1 d . . . .
C34 C 0.24717(17) 0.7975(2) 0.43832(11) 0.0364(6) Uani 1 1 d . . . .
H34 H 0.3039 0.7674 0.4491 0.044 Uiso 1 1 calc R . . .
C35 C 0.24209(18) 0.8972(2) 0.42164(11) 0.0376(6) Uani 1 1 d . . . .
H35 H 0.2957 0.9358 0.4205 0.045 Uiso 1 1 calc R . . .
C36 C 0.15855(18) 0.9395(2) 0.40681(9) 0.0315(5) Uani 1 1 d . . . .
C37 C 0.07960(18) 0.8842(2) 0.40749(11) 0.0395(6) Uani 1 1 d . . . .
H37 H 0.0227 0.9141 0.3969 0.047 Uiso 1 1 calc R . . .
C38 C 0.08428(17) 0.7855(2) 0.42369(10) 0.0374(6) Uani 1 1 d . . . .
H38 H 0.0306 0.7468 0.4244 0.045 Uiso 1 1 calc R . . .
C39 C 0.1876(3) 1.0356(3) 0.31003(13) 0.0601(10) Uani 1 1 d . . . .
H39A H 0.1249 1.0559 0.2983 0.072 Uiso 1 1 calc R . . .
H39B H 0.1905 0.9599 0.3119 0.072 Uiso 1 1 calc R . . .
C40 C 0.2533(3) 1.0754(4) 0.27982(16) 0.0788(13) Uani 1 1 d . . . .
H40A H 0.2470 1.1499 0.2768 0.118 Uiso 1 1 calc GR . . .
H40B H 0.2401 1.0435 0.2502 0.118 Uiso 1 1 calc GR . . .
H40C H 0.3152 1.0586 0.2929 0.118 Uiso 1 1 calc GR . . .
C41 C 0.09065(15) 0.4231(2) 0.45378(8) 0.0256(5) Uani 1 1 d . . . .
C42 C 0.0201(7) 0.4782(10) 0.4342(5) 0.046(3) Uani 0.55(3) 1 d . P C 1
H42 H 0.0281 0.5477 0.4262 0.055 Uiso 0.55(3) 1 calc R P C 1
C42B C 0.0146(7) 0.4891(8) 0.4532(6) 0.033(3) Uani 0.45(3) 1 d . P C 2
H42B H 0.0217 0.5595 0.4608 0.040 Uiso 0.45(3) 1 calc R P C 2
C43 C -0.0651(9) 0.4320(12) 0.4255(5) 0.040(3) Uani 0.55(3) 1 d . P C 1
H43 H -0.1156 0.4721 0.4133 0.048 Uiso 0.55(3) 1 calc R P C 1
C43B C -0.0702(12) 0.4464(15) 0.4410(7) 0.042(3) Uani 0.45(3) 1 d . P C 2
H43B H -0.1228 0.4880 0.4375 0.050 Uiso 0.45(3) 1 calc R P C 2
C44 C -0.07669(17) 0.3372(2) 0.43379(9) 0.0348(6) Uani 1 1 d . . . .
C45 C -0.0038(5) 0.2730(6) 0.4555(6) 0.042(2) Uani 0.55(3) 1 d . P C 1
H45 H -0.0143 0.2039 0.4633 0.050 Uiso 0.55(3) 1 calc R P C 1
C45B C -0.0035(7) 0.2839(9) 0.4333(7) 0.042(3) Uani 0.45(3) 1 d . P C 2
H45B H -0.0079 0.2137 0.4250 0.051 Uiso 0.45(3) 1 calc R P C 2
C46 C 0.0800(6) 0.3157(8) 0.4641(4) 0.0340(19) Uani 0.55(3) 1 d . P C 1
H46 H 0.1304 0.2760 0.4767 0.041 Uiso 0.55(3) 1 calc R P C 1
C46B C 0.0825(7) 0.3286(9) 0.4452(7) 0.042(3) Uani 0.45(3) 1 d . P C 2
H46B H 0.1351 0.2870 0.4467 0.050 Uiso 0.45(3) 1 calc R P C 2
C47 C -0.1660(5) 0.1978(7) 0.3468(3) 0.078(3) Uani 0.610(12) 1 d . P D 1
H47A H -0.1106 0.2378 0.3442 0.093 Uiso 0.610(12) 1 calc R P D 1
H47B H -0.2189 0.2379 0.3330 0.093 Uiso 0.610(12) 1 calc R P D 1
C47A C -0.2365(7) 0.1789(9) 0.3423(3) 0.058(4) Uani 0.390(12) 1 d . P D 2
H47C H -0.2964 0.1830 0.3530 0.070 Uiso 0.390(12) 1 calc R P D 2
H47D H -0.2442 0.2018 0.3107 0.070 Uiso 0.390(12) 1 calc R P D 2
C48A C -0.2075(11) 0.0758(9) 0.3442(5) 0.123(6) Uani 0.63(2) 1 d . P D 2
H48A H -0.1550 0.0685 0.3281 0.184 Uiso 0.63(2) 1 calc GR P D 2
H48B H -0.2567 0.0318 0.3303 0.184 Uiso 0.63(2) 1 calc GR P D 2
H48C H -0.1908 0.0555 0.3755 0.184 Uiso 0.63(2) 1 calc GR P D 2
C48 C -0.1623(7) 0.0951(8) 0.3224(4) 0.049(4) Uani 0.37(2) 1 d . P D 1
H48D H -0.1115 0.0545 0.3371 0.074 Uiso 0.37(2) 1 calc GR P D 1
H48E H -0.1541 0.1075 0.2912 0.074 Uiso 0.37(2) 1 calc GR P D 1
H48F H -0.2189 0.0577 0.3235 0.074 Uiso 0.37(2) 1 calc GR P D 1
N1 N 0.32413(13) 0.55545(16) 0.46237(7) 0.0235(4) Uani 1 1 d . . . .
N2 N 0.38088(13) 0.54446(15) 0.38079(7) 0.0222(4) Uani 1 1 d . . . .
N3 N 0.20121(13) 0.53969(16) 0.38793(7) 0.0241(4) Uani 1 1 d . . . .
O1 O 0.46336(10) 0.65078(12) 0.44771(6) 0.0231(3) Uani 1 1 d . . . .
O2 O 0.880(2) 0.688(5) 0.411(2) 0.031(7) Uani 0.23(13) 1 d . P E 1
O2A O 0.8746(10) 0.666(2) 0.3989(14) 0.047(4) Uani 0.77(13) 1 d . P E 2
O3 O 0.8047(9) 0.812(4) 0.3508(13) 0.043(5) Uani 0.52(12) 1 d . P E 1
O3B O 0.8043(9) 0.775(5) 0.3443(5) 0.042(6) Uani 0.48(12) 1 d . P E 2
O4 O 0.8568(4) 0.8259(7) 0.4308(5) 0.037(2) Uani 0.56(3) 1 d . P A 1
O4B O 0.8391(8) 0.8595(13) 0.4132(5) 0.040(4) Uani 0.44(3) 1 d . P A 2
O5 O 0.47483(11) 0.46567(12) 0.45127(5) 0.0229(3) Uani 1 1 d . . . .
O6 O 0.4217(4) 0.0033(10) 0.3693(9) 0.047(3) Uani 0.75(7) 1 d . P F 1
O6B O 0.4210(12) -0.014(2) 0.388(2) 0.041(8) Uani 0.25(7) 1 d . P F 2
O7 O 0.5826(9) 0.0365(4) 0.3673(5) 0.080(4) Uani 0.80(3) 1 d . P F 1
O7B O 0.536(3) 0.0374(11) 0.3474(8) 0.053(8) Uani 0.20(3) 1 d . P F 2
O8 O 0.5236(3) -0.0173(2) 0.43544(13) 0.0422(13) Uani 0.717(11) 1 d . P B 1
O8B O 0.5782(8) -0.0107(6) 0.4219(3) 0.047(4) Uani 0.283(11) 1 d . P B 2
O9 O 0.25777(12) 0.62584(15) 0.32168(6) 0.0314(4) Uani 1 1 d . . . .
O10 O 0.61194(17) 0.8648(2) 0.27224(9) 0.0585(7) Uani 1 1 d . . . .
O11 O 0.5739(2) 0.75972(19) 0.20416(10) 0.0683(8) Uani 1 1 d . . . .
O12 O 0.50027(16) 0.92343(16) 0.21593(7) 0.0412(5) Uani 1 1 d . . . .
O13 O 0.27531(12) 0.43455(14) 0.32915(6) 0.0326(4) Uani 1 1 d . . . .
O14 O -0.08278(18) 0.3142(2) 0.19079(10) 0.0710(8) Uani 1 1 d . . . .
O15 O -0.1255(2) 0.2524(4) 0.26063(12) 0.126(2) Uani 1 1 d . . . .
O16 O -0.03413(18) 0.1483(2) 0.22146(8) 0.0600(7) Uani 1 1 d . . . .
O17 O 0.16651(11) 0.64480(14) 0.45684(6) 0.0297(4) Uani 1 1 d . . . .
O18 O 0.05915(15) 1.09043(19) 0.37282(9) 0.0529(6) Uani 1 1 d . . . .
O19 O 0.19474(17) 1.13126(17) 0.42604(9) 0.0532(6) Uani 1 1 d . . . .
O20 O 0.21479(15) 1.08115(17) 0.35410(8) 0.0456(5) Uani 1 1 d . . . .
O21 O 0.17841(11) 0.46160(14) 0.46559(6) 0.0285(4) Uani 1 1 d . . . .
O22 O -0.2473(2) 0.3557(3) 0.4026(2) 0.0632(19) Uani 0.787(16) 1 d . P G 1
O22B O -0.2409(11) 0.3746(16) 0.4349(11) 0.102(9) Uani 0.213(16) 1 d . P G 2
O23 O -0.2084(10) 0.2332(17) 0.4662(5) 0.042(4) Uani 0.27(6) 1 d . P G 1
O23B O -0.2034(4) 0.2110(12) 0.4487(12) 0.081(6) Uani 0.73(6) 1 d . P G 2
O24 O -0.1732(3) 0.1785(4) 0.39323(19) 0.0538(19) Uani 0.519(11) 1 d . P D 1
O24B O -0.1718(5) 0.2514(8) 0.3700(2) 0.100(4) Uani 0.481(11) 1 d . P D 2
P1 P 0.40450(4) 0.55232(4) 0.43324(2) 0.01942(13) Uani 1 1 d . . . .
P2 P 0.27953(4) 0.53692(5) 0.35745(2) 0.02207(13) Uani 1 1 d . . . .
P3 P 0.22194(4) 0.55160(5) 0.44044(2) 0.02159(13) Uani 1 1 d . . . .
S1 S 0.81528(4) 0.75357(5) 0.39085(2) 0.03081(15) Uani 1 1 d . . . .
S2 S 0.50440(5) 0.04155(5) 0.38978(3) 0.03845(17) Uani 1 1 d . . . .
S3 S 0.54697(5) 0.82523(6) 0.23767(3) 0.04254(18) Uani 1 1 d . . . .
S4 S -0.05911(5) 0.25877(9) 0.23091(3) 0.0574(3) Uani 1 1 d . . . .
S5 S 0.15092(5) 1.06900(6) 0.39039(3) 0.04025(18) Uani 1 1 d . . . .
S6 S -0.18518(5) 0.28257(8) 0.42043(3) 0.0545(2) Uani 1 1 d . . . .
loop_
_atom_site_aniso_label
_atom_site_aniso_U_11
_atom_site_aniso_U_22
_atom_site_aniso_U_33
_atom_site_aniso_U_23
_atom_site_aniso_U_13
_atom_site_aniso_U_12
C1 0.0171(10) 0.0187(10) 0.0287(11) -0.0039(9) 0.0050(8) -0.0050(8)
C2 0.0214(10) 0.0238(11) 0.0277(11) 0.0036(9) 0.0010(9) -0.0042(9)
C3 0.0173(10) 0.0261(12) 0.0318(12) 0.0047(10) -0.0009(9) -0.0013(9)
C4 0.0184(10) 0.0261(12) 0.0312(12) 0.0019(10) 0.0039(9) -0.0035(9)
C5 0.0235(11) 0.0258(12) 0.0305(12) 0.0053(10) 0.0017(9) -0.0026(9)
C6 0.0187(10) 0.0219(11) 0.0332(12) 0.0019(9) -0.0007(9) -0.0001(8)
C7 0.043(3) 0.029(3) 0.066(5) 0.002(3) -0.005(3) 0.002(2)
C7B 0.054(4) 0.091(7) 0.044(4) -0.016(4) 0.014(3) -0.023(4)
C8 0.094(3) 0.075(3) 0.067(3) -0.022(2) 0.012(2) -0.028(3)
C9 0.0217(10) 0.0192(10) 0.0192(10) -0.0005(8) 0.0024(8) -0.0024(8)
C10 0.0182(11) 0.0295(13) 0.0446(15) -0.0104(11) 0.0042(10) -0.0035(9)
C11 0.0203(11) 0.0312(14) 0.0580(18) -0.0127(12) 0.0084(11) 0.0000(10)
C12 0.0305(12) 0.0209(11) 0.0315(12) -0.0055(9) 0.0079(10) -0.0032(9)
C13 0.0244(11) 0.0236(12) 0.0384(13) -0.0009(10) -0.0055(10) -0.0053(9)
C14 0.0196(11) 0.0218(11) 0.0418(14) 0.0030(10) -0.0034(10) -0.0012(9)
C15 0.064(5) 0.042(3) 0.083(6) 0.010(3) -0.027(4) -0.007(3)
C15B 0.15(2) 0.104(14) 0.068(9) 0.033(8) 0.047(11) 0.086(16)
C16 0.080(3) 0.076(3) 0.050(2) 0.002(2) 0.0026(19) 0.023(2)
C17 0.0266(11) 0.0307(13) 0.0308(12) 0.0108(10) 0.0049(9) 0.0060(10)
C18 0.0463(16) 0.0230(13) 0.0499(16) 0.0027(12) 0.0190(13) 0.0020(11)
C19 0.0527(17) 0.0257(13) 0.0520(17) 0.0033(12) 0.0276(14) 0.0048(12)
C20 0.0391(14) 0.0284(13) 0.0351(14) 0.0085(11) 0.0116(11) 0.0039(11)
C21 0.0411(14) 0.0271(13) 0.0328(13) 0.0009(10) 0.0060(11) 0.0006(11)
C22 0.0377(14) 0.0354(14) 0.0279(12) -0.0004(11) 0.0075(10) 0.0072(11)
C23 0.110(3) 0.060(2) 0.0310(16) 0.0086(16) -0.0064(19) -0.016(2)
C24 0.083(3) 0.081(3) 0.064(3) 0.031(2) -0.008(2) -0.004(2)
C25 0.0264(12) 0.0343(14) 0.0405(14) -0.0142(12) -0.0059(11) 0.0015(10)
C26 0.0446(18) 0.122(4) 0.0281(15) -0.0135(19) 0.0061(13) -0.035(2)
C27 0.0424(18) 0.127(4) 0.0279(15) -0.0164(19) 0.0020(13) -0.030(2)
C28 0.0307(14) 0.0561(19) 0.0444(16) -0.0185(14) -0.0074(12) -0.0014(13)
C29 0.0530(19) 0.0398(17) 0.066(2) 0.0126(16) -0.0247(17) -0.0160(15)
C30 0.0521(18) 0.0330(15) 0.060(2) 0.0139(14) -0.0275(16) -0.0100(13)
C31 0.077(3) 0.074(3) 0.056(2) 0.000(2) 0.017(2) -0.026(2)
C32 0.086(3) 0.054(3) 0.113(4) 0.012(3) -0.007(3) -0.010(2)
C33 0.0222(11) 0.0245(12) 0.0352(13) -0.0047(10) 0.0080(9) -0.0014(9)
C34 0.0193(11) 0.0268(13) 0.0628(18) -0.0016(12) 0.0043(11) -0.0004(10)
C35 0.0229(12) 0.0270(13) 0.0629(19) -0.0035(12) 0.0057(12) -0.0035(10)
C36 0.0276(12) 0.0283(13) 0.0385(14) -0.0002(11) 0.0040(10) 0.0008(10)
C37 0.0223(12) 0.0419(16) 0.0528(17) 0.0081(13) -0.0009(11) 0.0017(11)
C38 0.0198(11) 0.0405(15) 0.0515(17) 0.0055(13) 0.0030(11) -0.0046(11)
C39 0.070(2) 0.055(2) 0.055(2) -0.0034(17) 0.0064(18) -0.0219(19)
C40 0.071(3) 0.104(4) 0.065(3) -0.001(3) 0.021(2) -0.025(3)
C41 0.0174(10) 0.0324(13) 0.0271(11) 0.0044(10) 0.0032(8) -0.0069(9)
C42 0.024(3) 0.053(5) 0.059(6) 0.028(5) -0.004(4) -0.008(3)
C42B 0.024(3) 0.023(3) 0.057(7) 0.003(4) 0.021(4) -0.003(2)
C43 0.018(4) 0.050(6) 0.051(6) 0.016(5) -0.003(4) -0.004(3)
C43B 0.022(4) 0.040(5) 0.067(10) 0.006(7) 0.020(6) -0.001(3)
C44 0.0194(11) 0.0497(17) 0.0359(14) -0.0076(12) 0.0058(10) -0.0091(11)
C45 0.029(3) 0.026(3) 0.067(7) 0.002(4) -0.006(4) -0.006(2)
C45B 0.031(4) 0.031(4) 0.062(8) -0.009(5) -0.004(5) -0.012(3)
C46 0.024(3) 0.023(3) 0.055(5) 0.006(3) 0.004(3) -0.004(2)
C46B 0.019(3) 0.023(4) 0.082(10) 0.008(5) 0.003(5) -0.002(3)
C47 0.050(4) 0.102(6) 0.078(5) -0.011(5) -0.003(4) -0.021(4)
C47A 0.048(6) 0.081(8) 0.047(5) -0.020(5) 0.011(4) -0.031(5)
C48A 0.155(13) 0.107(9) 0.103(9) -0.022(7) 0.006(9) -0.038(8)
C48 0.049(6) 0.052(6) 0.048(6) -0.017(4) 0.012(4) -0.011(4)
N1 0.0175(9) 0.0287(10) 0.0242(9) -0.0024(8) 0.0026(7) -0.0051(7)
N2 0.0182(9) 0.0220(9) 0.0264(10) 0.0010(8) 0.0030(7) -0.0005(7)
N3 0.0170(9) 0.0262(10) 0.0283(10) 0.0026(8) 0.0003(7) -0.0018(7)
O1 0.0174(7) 0.0205(8) 0.0321(8) -0.0042(7) 0.0056(6) -0.0042(6)
O2 0.018(5) 0.021(11) 0.053(14) -0.003(8) 0.008(7) 0.000(5)
O2A 0.025(2) 0.036(5) 0.083(9) 0.008(6) 0.020(4) 0.002(3)
O3 0.032(3) 0.050(10) 0.050(7) 0.020(7) 0.009(3) -0.006(4)
O3B 0.028(3) 0.065(16) 0.037(3) 0.007(5) 0.012(2) -0.006(5)
O4 0.025(2) 0.032(3) 0.053(5) 0.009(3) 0.000(2) -0.0051(18)
O4B 0.033(3) 0.042(6) 0.044(5) 0.004(5) 0.008(3) -0.016(4)
O5 0.0198(7) 0.0194(8) 0.0282(8) -0.0017(6) -0.0020(6) -0.0011(6)
O6 0.056(2) 0.032(3) 0.049(7) -0.013(4) -0.009(2) -0.0052(17)
O6B 0.050(6) 0.024(6) 0.046(19) -0.007(8) -0.002(7) -0.005(4)
O7 0.078(6) 0.046(2) 0.133(8) -0.043(3) 0.072(6) -0.017(2)
O7B 0.080(18) 0.027(6) 0.056(11) -0.007(6) 0.027(11) -0.012(7)
O8 0.042(2) 0.0277(15) 0.056(2) -0.0110(14) 0.0060(17) 0.0023(13)
O8B 0.045(7) 0.034(4) 0.061(6) -0.008(4) 0.003(5) 0.015(4)
O9 0.0254(8) 0.0373(10) 0.0321(9) 0.0132(8) 0.0060(7) 0.0073(7)
O10 0.0489(13) 0.0585(15) 0.0683(16) 0.0260(13) 0.0083(12) -0.0080(11)
O11 0.0843(19) 0.0425(13) 0.092(2) -0.0004(13) 0.0633(17) -0.0026(13)
O12 0.0603(13) 0.0309(10) 0.0327(10) 0.0064(8) 0.0071(9) -0.0047(9)
O13 0.0253(9) 0.0322(10) 0.0376(10) -0.0119(8) -0.0059(7) 0.0024(7)
O14 0.0555(15) 0.0696(18) 0.0758(18) -0.0162(14) -0.0359(14) 0.0097(13)
O15 0.0444(16) 0.261(6) 0.075(2) -0.079(3) 0.0107(15) -0.044(2)
O16 0.0563(14) 0.0690(17) 0.0526(14) -0.0082(12) -0.0011(11) -0.0223(13)
O17 0.0235(8) 0.0265(9) 0.0416(10) -0.0008(8) 0.0135(7) -0.0015(7)
O18 0.0387(12) 0.0456(13) 0.0720(16) 0.0148(12) -0.0008(11) 0.0076(10)
O19 0.0575(14) 0.0310(11) 0.0676(15) -0.0035(10) -0.0039(12) 0.0040(10)
O20 0.0402(11) 0.0398(11) 0.0558(13) 0.0045(10) 0.0027(10) -0.0092(9)
O21 0.0183(8) 0.0322(9) 0.0337(9) 0.0097(7) -0.0011(7) -0.0076(7)
O22 0.0216(15) 0.083(3) 0.080(4) 0.019(2) -0.0119(16) -0.0158(14)
O22B 0.064(10) 0.135(16) 0.10(2) 0.001(12) -0.026(9) -0.068(11)
O23 0.039(5) 0.068(7) 0.023(9) -0.028(5) 0.014(3) -0.027(5)
O23B 0.042(2) 0.066(5) 0.132(15) 0.017(7) 0.008(4) -0.033(2)
O24 0.047(3) 0.051(3) 0.062(3) -0.007(2) 0.003(2) -0.017(2)
O24B 0.098(5) 0.142(9) 0.053(4) -0.030(5) -0.016(4) -0.080(5)
P1 0.0154(2) 0.0181(3) 0.0247(3) -0.0008(2) 0.0023(2) -0.0027(2)
P2 0.0199(3) 0.0215(3) 0.0242(3) 0.0005(2) 0.0006(2) 0.0007(2)
P3 0.0158(3) 0.0216(3) 0.0274(3) 0.0017(2) 0.0035(2) -0.0031(2)
S1 0.0193(3) 0.0346(3) 0.0392(3) 0.0075(3) 0.0064(2) -0.0033(2)
S2 0.0372(4) 0.0271(3) 0.0523(4) -0.0129(3) 0.0106(3) -0.0018(3)
S3 0.0478(4) 0.0320(4) 0.0518(4) 0.0102(3) 0.0213(3) 0.0000(3)
S4 0.0316(4) 0.0878(7) 0.0497(5) -0.0263(5) -0.0057(3) -0.0103(4)
S5 0.0352(4) 0.0313(3) 0.0535(4) 0.0054(3) 0.0031(3) 0.0040(3)
S6 0.0224(3) 0.0720(6) 0.0688(6) -0.0206(5) 0.0054(3) -0.0162(4)
loop_
_atom_type_symbol
_atom_type_description
_atom_type_scat_dispersion_real
_atom_type_scat_dispersion_imag
_atom_type_scat_source
C C 0.0033 0.0016 'International Tables Vol C Tables 4.2.6.8 and 6.1.1.4'
H H 0.0000 0.0000 'International Tables Vol C Tables 4.2.6.8 and 6.1.1.4'
N N 0.0061 0.0033 'International Tables Vol C Tables 4.2.6.8 and 6.1.1.4'
O O 0.0106 0.0060 'International Tables Vol C Tables 4.2.6.8 and 6.1.1.4'
P P 0.1023 0.0942 'International Tables Vol C Tables 4.2.6.8 and 6.1.1.4'
S S 0.1246 0.1234 'International Tables Vol C Tables 4.2.6.8 and 6.1.1.4'
loop_
_geom_angle_atom_site_label_1
_geom_angle_atom_site_label_2
_geom_angle_atom_site_label_3
_geom_angle
C2 C1 C6 122.5(2)
C2 C1 O1 119.0(2)
C6 C1 O1 118.3(2)
C1 C2 H2 120.7
C1 C2 C3 118.5(2)
C3 C2 H2 120.7
C2 C3 H3 120.3
C4 C3 C2 119.5(2)
C4 C3 H3 120.3
C3 C4 C5 121.7(2)
C3 C4 S1 118.22(18)
C5 C4 S1 120.03(19)
C4 C5 H5 120.7
C6 C5 C4 118.6(2)
C6 C5 H5 120.7
C1 C6 C5 119.1(2)
C1 C6 H6 120.4
C5 C6 H6 120.4
H7A C7 H7B 109.0
C8 C7 H7A 111.0
C8 C7 H7B 111.0
O4 C7 H7A 111.0
O4 C7 H7B 111.0
O4 C7 C8 104.0(6)
H7BA C7B H7BB 109.0
C8 C7B H7BA 111.0
C8 C7B H7BB 111.0
O4B C7B H7BA 111.0
O4B C7B H7BB 111.0
O4B C7B C8 104.0(9)
C7 C8 H8AA 109.5
C7 C8 H8AB 109.5
C7 C8 H8AC 109.5
C7B C8 H8BD 109.5
C7B C8 H8BE 109.5
C7B C8 H8BF 109.5
H8AA C8 H8AB 109.5
H8AA C8 H8AC 109.5
H8AB C8 H8AC 109.5
H8BD C8 H8BE 109.5
H8BD C8 H8BF 109.5
H8BE C8 H8BF 109.5
C10 C9 C14 122.1(2)
C10 C9 O5 114.7(2)
C14 C9 O5 123.2(2)
C9 C10 H10 120.6
C11 C10 C9 118.9(2)
C11 C10 H10 120.6
C10 C11 H11 120.2
C10 C11 C12 119.7(2)
C12 C11 H11 120.2
C11 C12 S2 119.0(2)
C13 C12 C11 121.0(2)
C13 C12 S2 120.05(19)
C12 C13 H13 120.3
C12 C13 C14 119.3(2)
C14 C13 H13 120.3
C9 C14 C13 119.1(2)
C9 C14 H14 120.5
C13 C14 H14 120.5
H15A C15 H15B 108.8
C16 C15 H15A 110.6
C16 C15 H15B 110.6
O8 C15 H15A 110.6
O8 C15 H15B 110.6
O8 C15 C16 105.6(7)
H15C C15B H15D 107.7
C16 C15B H15C 108.8
C16 C15B H15D 108.8
C16 C15B O8B 114.0(15)
O8B C15B H15C 108.8
O8B C15B H15D 108.8
C15 C16 H16A 109.5
C15 C16 H16B 109.5
C15 C16 H16C 109.5
C15B C16 H16D 109.5
C15B C16 H16E 109.5
C15B C16 H16F 109.5
H16A C16 H16B 109.5
H16A C16 H16C 109.5
H16B C16 H16C 109.5
H16D C16 H16E 109.5
H16D C16 H16F 109.5
H16E C16 H16F 109.5
C18 C17 O9 120.4(2)
C22 C17 C18 122.4(2)
C22 C17 O9 117.2(2)
C17 C18 H18 120.8
C17 C18 C19 118.5(3)
C19 C18 H18 120.8
C18 C19 H19 120.4
C18 C19 C20 119.2(3)
C20 C19 H19 120.4
C19 C20 S3 119.4(2)
C21 C20 C19 121.9(3)
C21 C20 S3 118.8(2)
C20 C21 H21 120.5
C22 C21 C20 118.9(3)
C22 C21 H21 120.5
C17 C22 H22 120.5
C21 C22 C17 119.1(2)
C21 C22 H22 120.5
H23A C23 H23B 108.5
C24 C23 H23A 110.3
C24 C23 H23B 110.3
O12 C23 H23A 110.3
O12 C23 H23B 110.3
O12 C23 C24 107.3(3)
C23 C24 H24A 109.5
C23 C24 H24B 109.5
C23 C24 H24C 109.5
H24A C24 H24B 109.5
H24A C24 H24C 109.5
H24B C24 H24C 109.5
C26 C25 C30 121.4(3)
C26 C25 O13 119.5(3)
C30 C25 O13 118.9(3)
C25 C26 H26 120.4
C25 C26 C27 119.3(3)
C27 C26 H26 120.4
C26 C27 H27 119.9
C28 C27 C26 120.2(3)
C28 C27 H27 119.9
C27 C28 C29 120.7(3)
C27 C28 S4 120.5(3)
C29 C28 S4 118.8(3)
C28 C29 H29 120.4
C28 C29 C30 119.2(3)
C30 C29 H29 120.4
C25 C30 C29 119.2(3)
C25 C30 H30 120.4
C29 C30 H30 120.4
H31A C31 H31B 108.2
C32 C31 H31A 109.7
C32 C31 H31B 109.7
O16 C31 H31A 109.7
O16 C31 H31B 109.7
O16 C31 C32 110.0(4)
C31 C32 H32A 109.5
C31 C32 H32B 109.5
C31 C32 H32C 109.5
H32A C32 H32B 109.5
H32A C32 H32C 109.5
H32B C32 H32C 109.5
C34 C33 O17 121.7(2)
C38 C33 C34 121.8(2)
C38 C33 O17 116.5(2)
C33 C34 H34 120.8
C33 C34 C35 118.4(2)
C35 C34 H34 120.8
C34 C35 H35 120.2
C36 C35 C34 119.5(2)
C36 C35 H35 120.2
C35 C36 C37 121.3(3)
C35 C36 S5 119.8(2)
C37 C36 S5 118.8(2)
C36 C37 H37 120.3
C38 C37 C36 119.4(2)
C38 C37 H37 120.3
C33 C38 C37 119.6(2)
C33 C38 H38 120.2
C37 C38 H38 120.2
H39A C39 H39B 108.6
C40 C39 H39A 110.4
C40 C39 H39B 110.4
O20 C39 H39A 110.4
O20 C39 H39B 110.4
O20 C39 C40 106.4(3)
C39 C40 H40A 109.5
C39 C40 H40B 109.5
C39 C40 H40C 109.5
H40A C40 H40B 109.5
H40A C40 H40C 109.5
H40B C40 H40C 109.5
C42 C41 C46 120.6(6)
C42 C41 O21 124.7(5)
C46B C41 C42B 122.3(7)
C46B C41 O21 117.5(5)
O21 C41 C42B 120.2(5)
O21 C41 C46 114.7(4)
C41 C42 H42 120.3
C41 C42 C43 119.3(9)
C43 C42 H42 120.3
C41 C42B H42B 121.4
C43B C42B C41 117.3(10)
C43B C42B H42B 121.4
C42 C43 H43 119.2
C44 C43 C42 121.6(10)
C44 C43 H43 119.2
C42B C43B H43B 120.7
C42B C43B C44 118.6(13)
C44 C43B H43B 120.7
C43 C44 C45 122.2(7)
C43 C44 S6 119.4(6)
C43B C44 S6 118.4(7)
C45 C44 S6 118.4(4)
C45B C44 C43B 119.5(8)
C45B C44 S6 121.9(5)
C44 C45 H45 121.3
C46 C45 C44 117.4(7)
C46 C45 H45 121.3
C44 C45B H45B 119.5
C44 C45B C46B 120.9(9)
C46B C45B H45B 119.5
C41 C46 H46 120.7
C45 C46 C41 118.7(7)
C45 C46 H46 120.7
C41 C46B C45B 121.0(10)
C41 C46B H46B 119.5
C45B C46B H46B 119.5
H47A C47 H47B 108.3
C48 C47 H47A 109.9
C48 C47 H47B 109.9
O24 C47 H47A 109.9
O24 C47 H47B 109.9
O24 C47 C48 108.9(8)
H47C C47A H47D 107.7
C48A C47A H47C 108.8
C48A C47A H47D 108.8
C48A C47A O24B 113.7(10)
O24B C47A H47C 108.8
O24B C47A H47D 108.8
C47A C48A H48A 109.5
C47A C48A H48B 109.5
C47A C48A H48C 109.5
H48A C48A H48B 109.5
H48A C48A H48C 109.5
H48B C48A H48C 109.5
C47 C48 H48D 109.5
C47 C48 H48E 109.5
C47 C48 H48F 109.5
H48D C48 H48E 109.5
H48D C48 H48F 109.5
H48E C48 H48F 109.5
P3 N1 P1 121.93(13)
P1 N2 P2 121.42(13)
P3 N3 P2 121.62(12)
C1 O1 P1 122.94(14)
C7 O4 S1 117.9(10)
C7B O4B S1 117.6(14)
C9 O5 P1 126.85(14)
C15 O8 S2 115.3(6)
C15B O8B S2 117.3(12)
C17 O9 P2 121.60(15)
C23 O12 S3 117.0(2)
C25 O13 P2 123.27(17)
C31 O16 S4 116.1(3)
C33 O17 P3 123.54(16)
C39 O20 S5 118.5(2)
C41 O21 P3 124.95(15)
C47 O24 S6 112.1(5)
C47A O24B S6 121.7(6)
N1 P1 O1 105.07(10)
N1 P1 O5 110.13(10)
N2 P1 N1 118.38(10)
N2 P1 O1 111.72(10)
N2 P1 O5 110.20(10)
O1 P1 O5 99.63(9)
N2 P2 O9 110.63(10)
N3 P2 N2 118.49(11)
N3 P2 O9 106.15(10)
N3 P2 O13 110.72(11)
O13 P2 N2 104.98(10)
O13 P2 O9 105.16(11)
N1 P3 O17 111.07(10)
N1 P3 O21 104.96(10)
N3 P3 N1 118.09(11)
N3 P3 O17 110.34(11)
N3 P3 O21 111.65(10)
O21 P3 O17 98.93(10)
O2 S1 C4 109.7(13)
O2 S1 O3 135(2)
O2 S1 O4 82(3)
O2A S1 C4 108.4(5)
O2A S1 O4B 122(2)
O3 S1 C4 110.7(5)
O3 S1 O4 108(2)
O3B S1 C4 108.6(8)
O3B S1 O2A 108(3)
O3B S1 O4B 104(3)
O4 S1 C4 102.5(3)
O4B S1 C4 105.2(2)
O6 S2 C12 110.7(3)
O6 S2 O7 120.2(11)
O6 S2 O8 105.1(12)
O6B S2 C12 111.3(7)
O6B S2 O8B 110(2)
O7 S2 C12 108.3(2)
O7 S2 O8 109.2(7)
O7B S2 C12 112.0(6)
O7B S2 O6B 110(3)
O7B S2 O8B 105.0(17)
O8 S2 C12 101.73(14)
O8B S2 C12 108.6(3)
O10 S3 C20 109.55(14)
O10 S3 O11 120.63(19)
O10 S3 O12 103.35(14)
O11 S3 C20 108.67(15)
O11 S3 O12 110.40(15)
O12 S3 C20 102.72(13)
O14 S4 C28 108.70(18)
O14 S4 O15 117.0(2)
O14 S4 O16 111.32(16)
O15 S4 C28 109.03(16)
O15 S4 O16 105.7(3)
O16 S4 C28 104.43(15)
O18 S5 C36 108.35(14)
O18 S5 O19 119.02(15)
O18 S5 O20 111.56(14)
O19 S5 C36 109.14(14)
O19 S5 O20 102.07(14)
O20 S5 C36 105.87(13)
O22 S6 C44 110.7(2)
O22 S6 O23 113.6(8)
O22 S6 O24 119.8(3)
O22B S6 C44 97.6(5)
O22B S6 O24B 126.7(12)
O23 S6 C44 105.3(5)
O23 S6 O24 98.7(9)
O23B S6 C44 113.7(6)
O23B S6 O22B 101.6(16)
O23B S6 O24B 119.6(16)
O24 S6 C44 107.2(2)
O24B S6 C44 95.2(2)
loop_
_geom_bond_atom_site_label_1
_geom_bond_atom_site_label_2
_geom_bond_distance
C1 C2 1.383(3)
C1 C6 1.384(3)
C1 O1 1.406(3)
C2 H2 0.9500
C2 C3 1.388(3)
C3 H3 0.9500
C3 C4 1.388(3)
C4 C5 1.394(3)
C4 S1 1.760(2)
C5 H5 0.9500
C5 C6 1.389(3)
C6 H6 0.9500
C7 H7A 0.9900
C7 H7B 0.9900
C7 C8 1.517(8)
C7 O4 1.463(11)
C7B H7BA 0.9900
C7B H7BB 0.9900
C7B C8 1.543(10)
C7B O4B 1.480(18)
C8 H8AA 0.9800
C8 H8AB 0.9800
C8 H8AC 0.9800
C8 H8BD 0.9800
C8 H8BE 0.9800
C8 H8BF 0.9800
C9 C10 1.378(3)
C9 C14 1.382(3)
C9 O5 1.392(3)
C10 H10 0.9500
C10 C11 1.377(4)
C11 H11 0.9500
C11 C12 1.393(3)
C12 C13 1.383(4)
C12 S2 1.753(2)
C13 H13 0.9500
C13 C14 1.383(4)
C14 H14 0.9500
C15 H15A 0.9900
C15 H15B 0.9900
C15 C16 1.492(10)
C15 O8 1.485(9)
C15B H15C 0.9900
C15B H15D 0.9900
C15B C16 1.423(19)
C15B O8B 1.463(19)
C16 H16A 0.9800
C16 H16B 0.9800
C16 H16C 0.9800
C16 H16D 0.9800
C16 H16E 0.9800
C16 H16F 0.9800
C17 C18 1.386(4)
C17 C22 1.386(4)
C17 O9 1.398(3)
C18 H18 0.9500
C18 C19 1.391(4)
C19 H19 0.9500
C19 C20 1.391(4)
C20 C21 1.387(4)
C20 S3 1.769(3)
C21 H21 0.9500
C21 C22 1.384(4)
C22 H22 0.9500
C23 H23A 0.9900
C23 H23B 0.9900
C23 C24 1.478(6)
C23 O12 1.456(4)
C24 H24A 0.9800
C24 H24B 0.9800
C24 H24C 0.9800
C25 C26 1.362(4)
C25 C30 1.372(5)
C25 O13 1.407(3)
C26 H26 0.9500
C26 C27 1.387(4)
C27 H27 0.9500
C27 C28 1.357(5)
C28 C29 1.383(5)
C28 S4 1.771(3)
C29 H29 0.9500
C29 C30 1.392(4)
C30 H30 0.9500
C31 H31A 0.9900
C31 H31B 0.9900
C31 C32 1.496(7)
C31 O16 1.453(5)
C32 H32A 0.9800
C32 H32B 0.9800
C32 H32C 0.9800
C33 C34 1.390(3)
C33 C38 1.376(4)
C33 O17 1.394(3)
C34 H34 0.9500
C34 C35 1.394(4)
C35 H35 0.9500
C35 C36 1.382(4)
C36 C37 1.384(4)
C36 S5 1.761(3)
C37 H37 0.9500
C37 C38 1.377(4)
C38 H38 0.9500
C39 H39A 0.9900
C39 H39B 0.9900
C39 C40 1.517(6)
C39 O20 1.462(4)
C40 H40A 0.9800
C40 H40B 0.9800
C40 H40C 0.9800
C41 C42 1.344(10)
C41 C42B 1.422(10)
C41 C46 1.450(11)
C41 C46B 1.264(12)
C41 O21 1.403(3)
C42 H42 0.9500
C42 C43 1.400(17)
C42B H42B 0.9500
C42B C43B 1.39(2)
C43 H43 0.9500
C43 C44 1.278(16)
C43B H43B 0.9500
C43B C44 1.442(19)
C44 C45 1.457(10)
C44 C45B 1.297(11)
C44 S6 1.766(3)
C45 H45 0.9500
C45 C46 1.362(12)
C45B H45B 0.9500
C45B C46B 1.412(15)
C46 H46 0.9500
C46B H46B 0.9500
C47 H47A 0.9900
C47 H47B 0.9900
C47 C48 1.533(13)
C47 O24 1.441(10)
C47A H47C 0.9900
C47A H47D 0.9900
C47A C48A 1.413(16)
C47A O24B 1.520(10)
C48A H48A 0.9800
C48A H48B 0.9800
C48A H48C 0.9800
C48 H48D 0.9800
C48 H48E 0.9800
C48 H48F 0.9800
N1 P1 1.579(2)
N1 P3 1.5794(19)
N2 P1 1.576(2)
N2 P2 1.5831(19)
N3 P2 1.581(2)
N3 P3 1.579(2)
O1 P1 1.5847(16)
O2 S1 1.36(3)
O2A S1 1.448(16)
O3 S1 1.421(14)
O3B S1 1.418(15)
O4 S1 1.589(7)
O4B S1 1.559(8)
O5 P1 1.5886(17)
O6 S2 1.395(5)
O6B S2 1.439(19)
O7 S2 1.429(4)
O7B S2 1.420(15)
O8 S2 1.569(4)
O8B S2 1.527(8)
O9 P2 1.5881(18)
O10 S3 1.422(3)
O11 S3 1.422(3)
O12 S3 1.561(2)
O13 P2 1.5823(18)
O14 S4 1.413(3)
O15 S4 1.425(3)
O16 S4 1.527(3)
O17 P3 1.5872(18)
O18 S5 1.428(2)
O19 S5 1.433(2)
O20 S5 1.553(2)
O21 P3 1.5842(17)
O22 S6 1.388(4)
O22B S6 1.56(3)
O23 S6 1.602(13)
O23B S6 1.317(15)
O24 S6 1.610(5)
O24B S6 1.612(8)
loop_
_geom_torsion_atom_site_label_1
_geom_torsion_atom_site_label_2
_geom_torsion_atom_site_label_3
_geom_torsion_atom_site_label_4
_geom_torsion
C1 C2 C3 C4 0.4(4)
C1 O1 P1 N1 173.65(17)
C1 O1 P1 N2 -56.8(2)
C1 O1 P1 O5 59.63(19)
C2 C1 C6 C5 -0.3(4)
C2 C1 O1 P1 -83.7(2)
C2 C3 C4 C5 -1.1(4)
C2 C3 C4 S1 178.53(19)
C3 C4 C5 C6 1.1(4)
C3 C4 S1 O2 12(3)
C3 C4 S1 O2A 31(2)
C3 C4 S1 O3 171(3)
C3 C4 S1 O3B 148(3)
C3 C4 S1 O4 -74.2(6)
C3 C4 S1 O4B -101.0(9)
C4 C5 C6 C1 -0.4(4)
C5 C4 S1 O2 -169(3)
C5 C4 S1 O2A -149(2)
C5 C4 S1 O3 -10(3)
C5 C4 S1 O3B -32(3)
C5 C4 S1 O4 105.4(6)
C5 C4 S1 O4B 78.7(9)
C6 C1 C2 C3 0.3(4)
C6 C1 O1 P1 99.8(2)
C7 O4 S1 C4 -76.1(8)
C7 O4 S1 O2 175.5(17)
C7 O4 S1 O3 40.9(13)
C7B O4B S1 C4 73.2(9)
C7B O4B S1 O2A -50.5(12)
C7B O4B S1 O3B -172.6(10)
C8 C7 O4 S1 179.5(6)
C8 C7B O4B S1 -174.7(6)
C9 C10 C11 C12 -0.8(4)
C9 O5 P1 N1 93.54(19)
C9 O5 P1 N2 -38.9(2)
C9 O5 P1 O1 -156.40(18)
C10 C9 C14 C13 -1.7(4)
C10 C9 O5 P1 148.42(19)
C10 C11 C12 C13 0.2(4)
C10 C11 C12 S2 -179.5(2)
C11 C12 C13 C14 -0.3(4)
C11 C12 S2 O6 -172.7(13)
C11 C12 S2 O6B 160(3)
C11 C12 S2 O7 -39.0(8)
C11 C12 S2 O7B -76(2)
C11 C12 S2 O8 76.1(3)
C11 C12 S2 O8B 39.2(6)
C12 C13 C14 C9 1.0(4)
C13 C12 S2 O6 7.6(13)
C13 C12 S2 O6B -20(3)
C13 C12 S2 O7 141.3(8)
C13 C12 S2 O7B 104(2)
C13 C12 S2 O8 -103.7(3)
C13 C12 S2 O8B -140.5(6)
C14 C9 C10 C11 1.6(4)
C14 C9 O5 P1 -32.5(3)
C15 O8 S2 C12 -77.2(6)
C15 O8 S2 O6 167.4(7)
C15 O8 S2 O7 37.1(7)
C15B O8B S2 C12 67.8(17)
C15B O8B S2 O6B -54(3)
C15B O8B S2 O7B -172(2)
C16 C15 O8 S2 -165.4(6)
C16 C15B O8B S2 173.4(17)
C17 C18 C19 C20 0.7(5)
C17 O9 P2 N2 25.9(2)
C17 O9 P2 N3 155.7(2)
C17 O9 P2 O13 -86.9(2)
C18 C17 C22 C21 -3.0(4)
C18 C17 O9 P2 70.1(3)
C18 C19 C20 C21 -2.6(5)
C18 C19 C20 S3 177.8(2)
C19 C20 C21 C22 1.7(4)
C19 C20 S3 O10 -127.2(3)
C19 C20 S3 O11 6.5(3)
C19 C20 S3 O12 123.5(2)
C20 C21 C22 C17 1.1(4)
C21 C20 S3 O10 53.2(3)
C21 C20 S3 O11 -173.1(2)
C21 C20 S3 O12 -56.2(2)
C22 C17 C18 C19 2.1(4)
C22 C17 O9 P2 -111.7(2)
C23 O12 S3 C20 -73.2(3)
C23 O12 S3 O10 172.8(3)
C23 O12 S3 O11 42.5(3)
C24 C23 O12 S3 172.9(3)
C25 C26 C27 C28 0.0(7)
C25 O13 P2 N2 174.6(2)
C25 O13 P2 N3 45.7(2)
C25 O13 P2 O9 -68.6(2)
C26 C25 C30 C29 -2.0(6)
C26 C25 O13 P2 94.0(4)
C26 C27 C28 C29 -1.4(7)
C26 C27 C28 S4 179.0(4)
C27 C28 C29 C30 1.1(6)
C27 C28 S4 O14 -14.9(4)
C27 C28 S4 O15 -143.4(4)
C27 C28 S4 O16 104.0(3)
C28 C29 C30 C25 0.6(6)
C29 C28 S4 O14 165.5(3)
C29 C28 S4 O15 36.9(4)
C29 C28 S4 O16 -75.6(3)
C30 C25 C26 C27 1.7(6)
C30 C25 O13 P2 -90.1(3)
C31 O16 S4 C28 -73.2(3)
C31 O16 S4 O14 43.9(3)
C31 O16 S4 O15 171.8(3)
C32 C31 O16 S4 177.9(3)
C33 C34 C35 C36 1.0(5)
C33 O17 P3 N1 81.0(2)
C33 O17 P3 N3 -51.9(2)
C33 O17 P3 O21 -169.09(19)
C34 C33 C38 C37 0.2(5)
C34 C33 O17 P3 -57.1(3)
C34 C35 C36 C37 -1.1(5)
C34 C35 C36 S5 174.3(2)
C35 C36 C37 C38 0.7(5)
C35 C36 S5 O18 174.7(2)
C35 C36 S5 O19 -54.2(3)
C35 C36 S5 O20 55.0(3)
C36 C37 C38 C33 -0.3(5)
C37 C36 S5 O18 -9.7(3)
C37 C36 S5 O19 121.3(3)
C37 C36 S5 O20 -129.5(2)
C38 C33 C34 C35 -0.6(4)
C38 C33 O17 P3 126.4(2)
C39 O20 S5 C36 71.7(3)
C39 O20 S5 O18 -46.0(3)
C39 O20 S5 O19 -174.2(3)
C40 C39 O20 S5 170.1(3)
C41 C42 C43 C44 -3.7(14)
C41 C42B C43B C44 5.5(15)
C41 O21 P3 N1 -172.7(2)
C41 O21 P3 N3 -43.7(2)
C41 O21 P3 O17 72.5(2)
C42 C41 C46 C45 -3.1(12)
C42 C41 O21 P3 -29.6(10)
C42 C43 C44 C45 4.4(12)
C42 C43 C44 S6 -177.9(7)
C42B C41 C46B C45B 1.5(14)
C42B C41 O21 P3 -58.9(8)
C42B C43B C44 C45B -8.5(15)
C42B C43B C44 S6 177.6(8)
C43 C44 C45 C46 -4.4(11)
C43 C44 S6 O22 -1.4(9)
C43 C44 S6 O23 -124.7(12)
C43 C44 S6 O24 131.0(9)
C43B C44 C45B C46B 7.8(13)
C43B C44 S6 O22B -15.7(14)
C43B C44 S6 O23B -122.1(18)
C43B C44 S6 O24B 112.4(10)
C44 C45 C46 C41 3.5(12)
C44 C45B C46B C41 -4.4(16)
C45 C44 S6 O22 176.4(8)
C45 C44 S6 O23 53.1(12)
C45 C44 S6 O24 -51.2(8)
C45B C44 S6 O22B 170.5(16)
C45B C44 S6 O23B 64.1(19)
C45B C44 S6 O24B -61.4(12)
C46 C41 C42 C43 2.9(12)
C46 C41 O21 P3 150.0(6)
C46B C41 C42B C43B -2.3(13)
C46B C41 O21 P3 123.0(12)
C47 O24 S6 C44 -80.6(4)
C47 O24 S6 O22 46.7(5)
C47 O24 S6 O23 170.4(7)
C47A O24B S6 C44 166.8(9)
C47A O24B S6 O22B -89.7(12)
C47A O24B S6 O23B 45.7(11)
C48A C47A O24B S6 -94.9(13)
C48 C47 O24 S6 -175.6(5)
O1 C1 C2 C3 -176.1(2)
O1 C1 C6 C5 176.2(2)
O5 C9 C10 C11 -179.4(2)
O5 C9 C14 C13 179.3(2)
O9 C17 C18 C19 -179.8(3)
O9 C17 C22 C21 178.9(2)
O13 C25 C26 C27 177.6(4)
O13 C25 C30 C29 -177.9(3)
O17 C33 C34 C35 -177.0(3)
O17 C33 C38 C37 176.8(3)
O21 C41 C42 C43 -177.6(6)
O21 C41 C42B C43B 179.7(8)
O21 C41 C46 C45 177.4(7)
O21 C41 C46B C45B 179.5(8)
P1 N1 P3 N3 2.5(2)
P1 N1 P3 O17 -126.35(14)
P1 N1 P3 O21 127.68(15)
P1 N2 P2 N3 1.24(19)
P1 N2 P2 O9 124.09(14)
P1 N2 P2 O13 -122.95(14)
P2 N2 P1 N1 -1.57(19)
P2 N2 P1 O1 -123.80(13)
P2 N2 P1 O5 126.43(13)
P2 N3 P3 N1 -2.9(2)
P2 N3 P3 O17 126.34(14)
P2 N3 P3 O21 -124.67(14)
P3 N1 P1 N2 -0.4(2)
P3 N1 P1 O1 125.15(14)
P3 N1 P1 O5 -128.40(14)
P3 N3 P2 N2 1.1(2)
P3 N3 P2 O9 -124.01(15)
P3 N3 P2 O13 122.37(14)
S1 C4 C5 C6 -178.51(19)
S2 C12 C13 C14 179.4(2)
S3 C20 C21 C22 -178.7(2)
S4 C28 C29 C30 -179.3(3)
S5 C36 C37 C38 -174.8(2)
S6 C44 C45 C46 177.9(6)
S6 C44 C45B C46B -178.5(7)
