#------------------------------------------------------------------------------
#$Date: 2017-07-25 13:40:47 +0300 (Tue, 25 Jul 2017) $
#$Revision: 199307 $
#$URL: file:///home/coder/svn-repositories/cod/cif/1/54/67/1546711.cif $
#------------------------------------------------------------------------------
#
# This file is available in the Crystallography Open Database (COD),
# http://www.crystallography.net/. The original data for this entry
# were provided by IUCr Journals, http://journals.iucr.org/.
#
# The file may be used within the scientific community so long as
# proper attribution is given to the journal article from which the
# data were obtained.
#
data_1546711
loop_
_publ_author_name
'Abe, Ryosuke'
'Takase, Tsugiko'
'Oyama, Dai'
_publ_section_title
;
 2-(Pyridin-2-yl)pyridinium trifluoromethanesulfonate
;
_journal_issue                   5
_journal_name_full               IUCrData
_journal_page_first              x170689
_journal_paper_doi               10.1107/S2414314617006897
_journal_volume                  2
_journal_year                    2017
_chemical_formula_iupac          'C10 H9 N2 +, C1 F3 O3 S -'
_chemical_formula_moiety         'C10 H9 N2 +, C1 F3 O3 S -'
_chemical_formula_sum            'C11 H9 F3 N2 O3 S'
_chemical_formula_weight         306.26
_chemical_name_systematic
;
2-(Pyridin-2-yl)pyridinium trifluoromethanesulfonate
;
_space_group_IT_number           61
_symmetry_cell_setting           orthorhombic
_symmetry_space_group_name_Hall  '-P 2ac 2ab'
_symmetry_space_group_name_H-M   'P b c a'
_atom_sites_solution_hydrogens   geom
_atom_sites_solution_primary     direct
_atom_sites_solution_secondary   difmap
_cell_angle_alpha                90.0000
_cell_angle_beta                 90.0000
_cell_angle_gamma                90.0000
_cell_formula_units_Z            8
_cell_length_a                   7.37174(13)
_cell_length_b                   12.5726(3)
_cell_length_c                   26.4454(5)
_cell_measurement_reflns_used    22516
_cell_measurement_temperature    93
_cell_measurement_theta_max      27.50
_cell_measurement_theta_min      3.17
_cell_volume                     2451.01(9)
_computing_cell_refinement
;
CrystalClear (Rigaku, 2008)
;
_computing_data_collection
;
CrystalClear (Rigaku, 2008)
;
_computing_data_reduction
;
CrystalClear (Rigaku, 2008)
;
_computing_molecular_graphics
;
Mercury (Macrae <i>et al.</i>,  2008) and ORTEP-3 for Windows (Farrugia,
2012)
;
_computing_publication_material
;
CrystalStructure (Rigaku, 2010), PLATON (Spek, 2009) and
publCIF (Westrip, 2010)
;
_computing_structure_refinement
;
SHELXL97 (Sheldrick, 2008)
;
_computing_structure_solution
;
SIR92 (Altomare <i>et al.</i>,  1993)
;
_diffrn_ambient_temperature      93
_diffrn_detector_area_resol_mean 7.143
_diffrn_measured_fraction_theta_full 0.994
_diffrn_measured_fraction_theta_max 0.994
_diffrn_measurement_device_type  'Rigaku Saturn70'
_diffrn_measurement_method       \w
_diffrn_radiation_type           'Mo K\a'
_diffrn_radiation_wavelength     0.71075
_diffrn_reflns_av_R_equivalents  0.0170
_diffrn_reflns_limit_h_max       9
_diffrn_reflns_limit_h_min       -9
_diffrn_reflns_limit_k_max       16
_diffrn_reflns_limit_k_min       -16
_diffrn_reflns_limit_l_max       34
_diffrn_reflns_limit_l_min       -33
_diffrn_reflns_number            23637
_diffrn_reflns_theta_full        27.48
_diffrn_reflns_theta_max         27.48
_diffrn_standards_number         0
_exptl_absorpt_coefficient_mu    0.312
_exptl_absorpt_correction_T_max  0.969
_exptl_absorpt_correction_T_min  0.892
_exptl_absorpt_correction_type   multi-scan
_exptl_absorpt_process_details
;
(<i>REQAB</i>; Rigaku, 1998)
;
_exptl_crystal_colour            yellow
_exptl_crystal_density_diffrn    1.660
_exptl_crystal_density_method    'not measured'
_exptl_crystal_description       prism
_exptl_crystal_F_000             1248.00
_exptl_crystal_size_max          0.220
_exptl_crystal_size_mid          0.200
_exptl_crystal_size_min          0.100
_refine_diff_density_max         0.550
_refine_diff_density_min         -0.270
_refine_ls_extinction_method     none
_refine_ls_goodness_of_fit_ref   1.036
_refine_ls_hydrogen_treatment    refxyz
_refine_ls_number_parameters     208
_refine_ls_number_reflns         2792
_refine_ls_number_restraints     0
_refine_ls_R_factor_gt           0.0284
_refine_ls_shift/su_max          0.001
_refine_ls_structure_factor_coef Fsqd
_refine_ls_weighting_details
'w = 1/[\s^2^(Fo^2^)+(0.0413P)^2^+1.2577P] where P=(Fo^2^+2Fc^2^)/3'
_refine_ls_weighting_scheme      calc
_refine_ls_wR_factor_ref         0.0772
_reflns_number_gt                2645
_reflns_number_total             2792
_reflns_threshold_expression     F^2^>2.0\s(F^2^)
_iucr_refine_instructions_details
;
TITL User-defined
CELL  0.71075 7.37174 12.57261 26.44543 90.000 90.000 90.000
ZERR  8 0.00013 0.00023 0.00048 0.000 0.000 0.000
LATT 1
SYMM .50-X, .50+Y,    +Z
SYMM    +X, .50-Y, .50+Z
SYMM .50-X,    -Y, .50+Z
SFAC S F O N C H
UNIT 8 24 24 16 88 72
SHEL 99999.000000 0.000000
L.S. 10
FMAP 2
PLAN -61
WPDB -2
HTAB
TEMP 93
ACTA
SIZE 0.200 0.200 0.200
WGHT    0.041300    1.257700
FVAR       0.55480
S1    1    0.736689   -0.040024    0.591120    11.00000    0.01725    0.01533 =
         0.01708    0.00012    0.00052    0.00033
F1    2    0.878915    0.149883    0.584234    11.00000    0.04249    0.01556 =
         0.03464    0.00191    0.00171   -0.00247
F2    2    1.025672    0.043611    0.633347    11.00000    0.02733    0.03620 =
         0.02623   -0.00355   -0.00769   -0.00494
F3    2    1.044737    0.025623    0.552488    11.00000    0.02715    0.03378 =
         0.02854   -0.00191    0.01098   -0.00516
O1    3    0.625753    0.004771    0.631219    11.00000    0.02167    0.02356 =
         0.01964    0.00145    0.00399    0.00386
O2    3    0.660744   -0.027735    0.541129    11.00000    0.02410    0.02793 =
         0.01993   -0.00394   -0.00434    0.00199
O3    3    0.813621   -0.142430    0.601995    11.00000    0.02568    0.01573 =
         0.03172    0.00286    0.00308    0.00226
N1    4    0.389862    0.179872    0.608243    11.00000    0.01656    0.01742 =
         0.01647    0.00126    0.00054    0.00038
H1    6    0.449741    0.131172    0.627168    11.00000   -1.20000
N2    4    0.366131    0.165876    0.708219    11.00000    0.02409    0.02717 =
         0.01870    0.00160    0.00058    0.00232
C1    5    0.388611    0.168171    0.557857    11.00000    0.02102    0.01976 =
         0.01862   -0.00070    0.00270   -0.00080
H2    6    0.451176    0.107317    0.545208    11.00000   -1.20000
C2    5    0.301318    0.242092    0.528147    11.00000    0.02461    0.02400 =
         0.01593    0.00064   -0.00064   -0.00155
H3    6    0.301757    0.230514    0.493281    11.00000   -1.20000
C3    5    0.217115    0.327854    0.551331    11.00000    0.02212    0.02196 =
         0.02254    0.00206   -0.00544    0.00095
H4    6    0.156132    0.381578    0.531801    11.00000   -1.20000
C4    5    0.218553    0.336651    0.603707    11.00000    0.01911    0.01953 =
         0.02166   -0.00240   -0.00141    0.00289
H5    6    0.158827    0.390696    0.619519    11.00000   -1.20000
C5    5    0.307513    0.261045    0.632388    11.00000    0.01352    0.01890 =
         0.01819   -0.00112    0.00025   -0.00106
C6    5    0.316463    0.259540    0.688266    11.00000    0.01512    0.02477 =
         0.01780   -0.00095    0.00047   -0.00018
C7    5    0.274559    0.348822    0.717045    11.00000    0.02622    0.02765 =
         0.02190   -0.00349   -0.00058    0.00281
H6    6    0.243360    0.415446    0.701462    11.00000   -1.20000
C8    5    0.282225    0.339859    0.769277    11.00000    0.03174    0.03680 =
         0.02131   -0.00839   -0.00043    0.00360
H7    6    0.258826    0.400598    0.788958    11.00000   -1.20000
C9    5    0.329956    0.243589    0.790478    11.00000    0.03027    0.04378 =
         0.01608   -0.00105   -0.00002    0.00043
H8    6    0.337345    0.235941    0.826277    11.00000   -1.20000
C10   5    0.372375    0.159358    0.758640    11.00000    0.03164    0.03428 =
         0.01988    0.00398   -0.00094    0.00226
H9    6    0.404894    0.086674    0.771701    11.00000   -1.20000
C11   5    0.931877    0.048959    0.590066    11.00000    0.02280    0.01902 =
         0.01887   -0.00060    0.00073   -0.00181
HKLF 4
REM  User-defined
REM R1 =  0.0284 for   2645 Fo > 4sig(Fo)  and  0.0298 for all   2792 data
REM    208 parameters refined using      0 restraints
END
WGHT      0.0412      1.2091
REM Highest difference peak  0.546,  deepest hole -0.272,  1-sigma level  0.046
Q1    1   0.8441  0.0064  0.5899  11.00000  0.05    0.55
Q2    1   0.3147  0.2618  0.6604  11.00000  0.05    0.30
Q3    1   0.2410  0.3366  0.5793  11.00000  0.05    0.29
Q4    1   0.3000  0.3060  0.7015  11.00000  0.05    0.29
Q5    1   0.2595  0.2962  0.6185  11.00000  0.05    0.28
Q6    1   0.3589  0.2105  0.5458  11.00000  0.05    0.25
Q7    1   0.7705 -0.0960  0.5975  11.00000  0.05    0.22
Q8    1   0.3440  0.1988  0.7735  11.00000  0.05    0.22
Q9    1   0.3425  0.2223  0.6205  11.00000  0.05    0.22
Q10   1   0.3970  0.1801  0.5820  11.00000  0.05    0.22
Q11   1   0.2628  0.2774  0.5426  11.00000  0.05    0.22
Q12   1   0.3303  0.2963  0.7801  11.00000  0.05    0.21
Q13   1   0.3526  0.2151  0.7007  11.00000  0.05    0.21
Q14   1   0.2677  0.3395  0.7420  11.00000  0.05    0.21
Q15   1   0.6664 -0.0212  0.6127  11.00000  0.05    0.20
Q16   1   0.7822 -0.1592  0.5966  11.00000  0.05    0.19
Q17   1   0.6904 -0.0257  0.5596  11.00000  0.05    0.16
Q18   1   0.3718  0.1644  0.7313  11.00000  0.05    0.16
Q19   1   0.6180  0.0018  0.5389  11.00000  0.05    0.15
Q20   1   0.9061  0.0930  0.5878  11.00000  0.05    0.14
Q21   1   0.3835  0.1150  0.6905  11.00000  0.05    0.14
Q22   1   0.9392  0.0066  0.6415  11.00000  0.05    0.13
Q23   1   0.7537  0.1321  0.5854  11.00000  0.05    0.12
Q24   1   0.2681  0.3792  0.7109  11.00000  0.05    0.12
Q25   1   0.6635 -0.0103  0.6495  11.00000  0.05    0.12
Q26   1   0.4228  0.1235  0.7716  11.00000  0.05    0.12
Q27   1   0.8433 -0.1214  0.6219  11.00000  0.05    0.11
Q28   1   0.3065  0.2470  0.5150  11.00000  0.05    0.11
Q29   1   0.2536  0.0442  0.7680  11.00000  0.05    0.11
Q30   1   0.6129  0.0536  0.6281  11.00000  0.05    0.10
Q31   1   0.6229  0.0212  0.5995  11.00000  0.05    0.09
Q32   1   0.3958  0.2578  0.4869  11.00000  0.05    0.09
Q33   1   0.2556  0.3559  0.7755  11.00000  0.05    0.09
Q34   1   0.9754  0.0419  0.5385  11.00000  0.05    0.09
Q35   1   0.9784  0.0459  0.6114  11.00000  0.05    0.09
Q36   1   0.9832 -0.0242  0.5496  11.00000  0.05    0.08
Q37   1   0.9282  0.1275  0.5979  11.00000  0.05    0.08
Q38   1   0.3254  0.2378  0.8056  11.00000  0.05    0.08
Q39   1   0.2058  0.4344  0.6230  11.00000  0.05    0.08
Q40   1   0.4810  0.0241  0.6341  11.00000  0.05    0.08
Q41   1   0.9806  0.0397  0.5697  11.00000  0.05    0.08
Q42   1   0.6134  0.0779  0.7422  11.00000  0.05    0.08
Q43   1   0.8477 -0.2399  0.5838  11.00000  0.05    0.08
Q44   1   0.9255  0.0533  0.6625  11.00000  0.05    0.08
Q45   1   0.6415  0.1546  0.5799  11.00000  0.05    0.08
Q46   1   0.3498 -0.0106  0.6551  11.00000  0.05    0.07
Q47   1   0.4229  0.0679  0.6703  11.00000  0.05    0.07
Q48   1   1.0000  0.1963  0.6053  11.00000  0.05    0.07
Q49   1   0.9255 -0.0193  0.6763  11.00000  0.05    0.07
Q50   1   0.4724  0.2454  0.8292  11.00000  0.05    0.07
Q51   1   0.9329  0.0808  0.6438  11.00000  0.05    0.07
Q52   1   0.1592  0.3441  0.5396  11.00000  0.05    0.07
Q53   1   1.1180  0.2352  0.5998  11.00000  0.05    0.07
Q54   1   0.6486  0.1858  0.6537  11.00000  0.05    0.07
Q55   1   0.5050  0.2419  0.6728  11.00000  0.05    0.07
Q56   1   0.4063 -0.0965  0.6279  11.00000  0.05    0.07
Q57   1   0.1629  0.4001  0.7011  11.00000  0.05    0.07
Q58   1   0.2426  0.4441  0.6801  11.00000  0.05    0.07
Q59   1   0.5905  0.0604  0.6621  11.00000  0.05    0.07
Q60   1   1.2227  0.0143  0.6327  11.00000  0.05    0.07
Q61   1   0.5723 -0.0794  0.6423  11.00000  0.05    0.07
;
_cod_data_source_file            wm4047sup1.cif
_cod_data_source_block           I
_cod_original_cell_volume        2451.02(8)
_cod_database_code               1546711
loop_
_symmetry_equiv_pos_site_id
_symmetry_equiv_pos_as_xyz
1 +X,+Y,+Z
2 1/2-X,1/2+Y,+Z
3 +X,1/2-Y,1/2+Z
4 1/2-X,-Y,1/2+Z
5 -X,-Y,-Z
6 1/2+X,1/2-Y,-Z
7 -X,1/2+Y,1/2-Z
8 1/2+X,+Y,1/2-Z
loop_
_atom_site_type_symbol
_atom_site_label
_atom_site_fract_x
_atom_site_fract_y
_atom_site_fract_z
_atom_site_U_iso_or_equiv
_atom_site_adp_type
_atom_site_calc_flag
_atom_site_occupancy
_atom_site_symmetry_multiplicity
S S1 0.73669(4) -0.04002(2) 0.591120(10) 0.01655(10) Uani d 1.0 8
F F1 0.87891(12) 0.14988(6) 0.58423(3) 0.03090(19) Uani d 1.0 8
F F2 1.02567(11) 0.04361(6) 0.63335(3) 0.02992(19) Uani d 1.0 8
F F3 1.04474(11) 0.02562(6) 0.55249(3) 0.02982(19) Uani d 1.0 8
O O1 0.62575(11) 0.00477(7) 0.63122(3) 0.02162(19) Uani d 1.0 8
O O2 0.66074(12) -0.02773(7) 0.54113(3) 0.0240(2) Uani d 1.0 8
O O3 0.81362(12) -0.14243(7) 0.60200(3) 0.0244(2) Uani d 1.0 8
N N1 0.38986(13) 0.17987(8) 0.60824(4) 0.0168(2) Uani d 1.0 8
N N2 0.36613(15) 0.16588(8) 0.70822(4) 0.0233(3) Uani d 1.0 8
C C1 0.38861(16) 0.16817(9) 0.55786(4) 0.0198(3) Uani d 1.0 8
C C2 0.30132(17) 0.24209(10) 0.52815(4) 0.0215(3) Uani d 1.0 8
C C3 0.21711(17) 0.32785(10) 0.55133(5) 0.0222(3) Uani d 1.0 8
C C4 0.21855(16) 0.33665(9) 0.60371(5) 0.0201(3) Uani d 1.0 8
C C5 0.30751(14) 0.26105(9) 0.63239(4) 0.0169(3) Uani d 1.0 8
C C6 0.31646(15) 0.25954(10) 0.68827(4) 0.0192(3) Uani d 1.0 8
C C7 0.27456(18) 0.34882(11) 0.71704(5) 0.0253(3) Uani d 1.0 8
C C8 0.2822(2) 0.33986(12) 0.76928(5) 0.0300(3) Uani d 1.0 8
C C9 0.32996(19) 0.24359(12) 0.79048(5) 0.0300(3) Uani d 1.0 8
C C10 0.3724(2) 0.15936(11) 0.75864(5) 0.0286(3) Uani d 1.0 8
C C11 0.93188(17) 0.04896(9) 0.59007(4) 0.0202(3) Uani d 1.0 8
H H1 0.450(2) 0.1312(12) 0.6272(6) 0.0202 Uiso d 1.0 8
H H2 0.451(2) 0.1073(12) 0.5452(6) 0.0238 Uiso d 1.0 8
H H3 0.302(2) 0.2305(12) 0.4933(6) 0.0258 Uiso d 1.0 8
H H4 0.156(2) 0.3816(13) 0.5318(6) 0.0266 Uiso d 1.0 8
H H5 0.159(2) 0.3907(12) 0.6195(6) 0.0241 Uiso d 1.0 8
H H6 0.243(3) 0.4154(14) 0.7015(6) 0.0303 Uiso d 1.0 8
H H7 0.259(3) 0.4006(14) 0.7890(7) 0.0359 Uiso d 1.0 8
H H8 0.337(3) 0.2359(13) 0.8263(7) 0.0360 Uiso d 1.0 8
H H9 0.405(3) 0.0867(14) 0.7717(6) 0.0343 Uiso d 1.0 8
loop_
_atom_site_aniso_label
_atom_site_aniso_U_11
_atom_site_aniso_U_22
_atom_site_aniso_U_33
_atom_site_aniso_U_12
_atom_site_aniso_U_13
_atom_site_aniso_U_23
S1 0.01725(15) 0.01533(15) 0.01708(15) 0.00033(10) 0.00052(10) 0.00012(9)
F1 0.0425(5) 0.0156(4) 0.0346(5) -0.0025(4) 0.0017(4) 0.0019(3)
F2 0.0273(4) 0.0362(5) 0.0262(4) -0.0049(4) -0.0077(3) -0.0036(3)
F3 0.0272(4) 0.0338(4) 0.0285(4) -0.0052(3) 0.0110(3) -0.0019(3)
O1 0.0217(4) 0.0236(5) 0.0196(4) 0.0039(4) 0.0040(4) 0.0014(4)
O2 0.0241(5) 0.0279(5) 0.0199(5) 0.0020(4) -0.0043(4) -0.0039(4)
O3 0.0257(5) 0.0157(4) 0.0317(5) 0.0023(4) 0.0031(4) 0.0029(4)
N1 0.0166(5) 0.0174(5) 0.0165(5) 0.0004(4) 0.0005(4) 0.0013(4)
N2 0.0241(5) 0.0272(6) 0.0187(5) 0.0023(5) 0.0006(4) 0.0016(4)
C1 0.0210(6) 0.0198(6) 0.0186(6) -0.0008(5) 0.0027(5) -0.0007(5)
C2 0.0246(6) 0.0240(6) 0.0159(6) -0.0015(5) -0.0006(5) 0.0006(5)
C3 0.0221(6) 0.0220(6) 0.0225(6) 0.0010(5) -0.0054(5) 0.0021(5)
C4 0.0191(6) 0.0195(6) 0.0217(6) 0.0029(5) -0.0014(5) -0.0024(5)
C5 0.0135(5) 0.0189(5) 0.0182(5) -0.0011(4) 0.0003(4) -0.0011(4)
C6 0.0151(5) 0.0248(6) 0.0178(6) -0.0002(5) 0.0005(4) -0.0010(5)
C7 0.0262(7) 0.0277(7) 0.0219(6) 0.0028(5) -0.0006(5) -0.0035(5)
C8 0.0317(8) 0.0368(8) 0.0213(6) 0.0036(6) -0.0004(5) -0.0084(6)
C9 0.0303(7) 0.0438(8) 0.0161(6) 0.0004(6) 0.0000(5) -0.0010(6)
C10 0.0316(7) 0.0343(7) 0.0199(6) 0.0023(6) -0.0009(5) 0.0040(5)
C11 0.0228(6) 0.0190(6) 0.0189(6) -0.0018(5) 0.0007(5) -0.0006(4)
loop_
_atom_type_symbol
_atom_type_description
_atom_type_scat_dispersion_real
_atom_type_scat_dispersion_imag
_atom_type_scat_source
S S 0.1246 0.1234
;
International Tables for Crystallography
(1992, Vol. C, Tables 4.2.6.8 and 6.1.1.4)
;
F F 0.0171 0.0103
;
International Tables for Crystallography
(1992, Vol. C, Tables 4.2.6.8 and 6.1.1.4)
;
O O 0.0106 0.0060
;
International Tables for Crystallography
(1992, Vol. C, Tables 4.2.6.8 and 6.1.1.4)
;
N N 0.0061 0.0033
;
International Tables for Crystallography
(1992, Vol. C, Tables 4.2.6.8 and 6.1.1.4)
;
C C 0.0033 0.0016
;
International Tables for Crystallography
(1992, Vol. C, Tables 4.2.6.8 and 6.1.1.4)
;
H H 0.0000 0.0000
;
International Tables for Crystallography
(1992, Vol. C, Table 6.1.1.4)
;
loop_
_geom_angle_atom_site_label_1
_geom_angle_atom_site_label_2
_geom_angle_atom_site_label_3
_geom_angle
_geom_angle_publ_flag
O1 S1 O2 114.11(5) no
O1 S1 O3 115.06(5) no
O1 S1 C11 102.57(5) no
O2 S1 O3 115.63(5) no
O2 S1 C11 103.09(5) no
O3 S1 C11 103.98(6) no
C1 N1 C5 123.42(10) no
C6 N2 C10 117.10(11) no
N1 C1 C2 119.76(11) no
C1 C2 C3 118.80(11) no
C2 C3 C4 119.94(12) no
C3 C4 C5 119.74(11) no
N1 C5 C4 118.32(11) no
N1 C5 C6 116.32(10) no
C4 C5 C6 125.34(11) no
N2 C6 C5 114.61(11) no
N2 C6 C7 123.64(11) no
C5 C6 C7 121.75(11) no
C6 C7 C8 118.05(13) no
C7 C8 C9 119.10(13) no
C8 C9 C10 118.69(13) no
N2 C10 C9 123.39(13) no
S1 C11 F1 110.72(9) no
S1 C11 F2 111.33(8) no
S1 C11 F3 111.72(8) no
F1 C11 F2 107.30(9) no
F1 C11 F3 107.83(9) no
F2 C11 F3 107.75(10) no
C1 N1 H1 118.6(10) no
C5 N1 H1 118.0(10) no
N1 C1 H2 115.7(9) no
C2 C1 H2 124.6(9) no
C1 C2 H3 117.2(10) no
C3 C2 H3 124.0(10) no
C2 C3 H4 121.2(10) no
C4 C3 H4 118.9(10) no
C3 C4 H5 120.9(10) no
C5 C4 H5 119.4(10) no
C6 C7 H6 121.5(10) no
C8 C7 H6 120.5(10) no
C7 C8 H7 118.5(11) no
C9 C8 H7 122.3(11) no
C8 C9 H8 120.4(10) no
C10 C9 H8 120.8(10) no
N2 C10 H9 114.0(10) no
C9 C10 H9 122.6(10) no
loop_
_geom_bond_atom_site_label_1
_geom_bond_atom_site_label_2
_geom_bond_distance
_geom_bond_publ_flag
S1 O1 1.4528(9) no
S1 O2 1.4440(9) no
S1 O3 1.4360(10) no
S1 C11 1.8228(13) no
F1 C11 1.3365(14) no
F2 C11 1.3389(14) no
F3 C11 1.3289(14) no
N1 C1 1.3404(15) no
N1 C5 1.3484(15) no
N2 C6 1.3413(16) no
N2 C10 1.3367(17) no
C1 C2 1.3766(17) no
C2 C3 1.3870(18) no
C3 C4 1.3897(19) no
C4 C5 1.3816(17) no
C5 C6 1.4794(15) no
C6 C7 1.3908(19) no
C7 C8 1.3872(19) no
C8 C9 1.380(2) no
C9 C10 1.389(2) no
N1 H1 0.906(15) no
C1 H2 0.954(15) no
C2 H3 0.934(16) no
C3 H4 0.962(16) no
C4 H5 0.911(15) no
C7 H6 0.961(17) no
C8 H7 0.940(17) no
C9 H8 0.953(19) no
C10 H9 1.006(17) no
loop_
_geom_contact_atom_site_label_1
_geom_contact_atom_site_label_2
_geom_contact_distance
_geom_contact_site_symmetry_2
_geom_contact_publ_flag
F1 O1 2.8906(12) . no
F1 O2 2.9786(12) . no
F2 O1 2.9888(12) . no
F2 O3 2.9329(12) . no
F3 O2 2.9246(12) . no
F3 O3 3.0135(12) . no
N1 N2 2.6556(15) . no
N1 C3 2.7108(17) . no
N2 C8 2.7883(18) . no
C1 C4 2.7439(17) . no
C2 C5 2.7673(15) . no
C4 C7 3.0292(19) . no
C6 C9 2.7122(17) . no
C7 C10 2.721(2) . no
F1 O3 3.0089(12) 2_655 no
F1 C2 3.3173(14) 6_556 no
F1 C3 3.4611(15) 1_655 no
F1 C4 3.4710(15) 1_655 no
F1 C9 3.5351(16) 8_556 no
F2 N1 3.2532(13) 1_655 no
F2 N2 3.5472(14) 1_655 no
F2 C4 3.3076(14) 2_645 no
F2 C5 3.4338(14) 1_655 no
F2 C9 3.5300(17) 8_556 no
F2 C10 3.3991(16) 8_556 no
F3 F3 2.9253(12) 5_756 no
F3 O2 3.2931(12) 5_756 no
F3 N1 3.5224(13) 1_655 no
F3 C1 3.1077(14) 1_655 no
F3 C2 3.3762(15) 1_655 no
F3 C3 3.0439(15) 2_645 no
F3 C4 3.2441(15) 2_645 no
O1 N1 2.8705(13) . no
O1 N2 3.4514(14) . no
O1 C1 3.3227(14) . no
O1 C4 3.3821(15) 2_545 no
O1 C8 3.4180(17) 7_646 no
O2 F3 3.2931(12) 5_756 no
O2 O2 3.2916(12) 5_656 no
O2 C1 3.2072(15) . no
O2 C1 3.1785(14) 5_656 no
O2 C2 3.2708(15) 5_656 no
O2 C3 3.3359(16) 2_545 no
O2 C3 3.5308(16) 6_556 no
O3 F1 3.0089(12) 2_645 no
O3 N1 3.1300(14) 2_645 no
O3 C1 3.4426(15) 2_645 no
O3 C4 3.4590(15) 2_645 no
O3 C5 3.1494(14) 2_645 no
O3 C8 3.4837(16) 7_646 no
O3 C9 3.3554(16) 7_646 no
N1 F2 3.2532(13) 1_455 no
N1 F3 3.5224(13) 1_455 no
N1 O1 2.8705(13) . no
N1 O3 3.1300(14) 2_655 no
N2 F2 3.5472(14) 1_455 no
N2 O1 3.4514(14) . no
N2 C9 3.5562(18) 8_556 no
C1 F3 3.1077(14) 1_455 no
C1 O1 3.3227(14) . no
C1 O2 3.2072(15) . no
C1 O2 3.1785(14) 5_656 no
C1 O3 3.4426(15) 2_655 no
C2 F1 3.3173(14) 6_456 no
C2 F3 3.3762(15) 1_455 no
C2 O2 3.2708(15) 5_656 no
C3 F1 3.4611(15) 1_455 no
C3 F3 3.0439(15) 2_655 no
C3 O2 3.3359(16) 2_555 no
C3 O2 3.5308(16) 6_456 no
C4 F1 3.4710(15) 1_455 no
C4 F2 3.3076(14) 2_655 no
C4 F3 3.2441(15) 2_655 no
C4 O1 3.3822(15) 2_555 no
C4 O3 3.4590(15) 2_655 no
C5 F2 3.4338(14) 1_455 no
C5 O3 3.1494(14) 2_655 no
C7 C9 3.540(2) 8_456 no
C8 O1 3.4180(17) 7_656 no
C8 O3 3.4837(16) 7_656 no
C9 F1 3.5351(16) 8_456 no
C9 F2 3.5300(17) 8_456 no
C9 O3 3.3554(16) 7_656 no
C9 N2 3.5562(18) 8_456 no
C9 C7 3.540(2) 8_556 no
C10 F2 3.3991(16) 8_456 no
N1 H3 3.173(16) . no
N1 H5 3.165(15) . no
N2 H1 2.273(15) . no
N2 H6 3.271(17) . no
N2 H8 3.251(19) . no
C1 H4 3.257(16) . no
C2 H1 3.162(15) . no
C2 H5 3.230(16) . no
C3 H2 3.270(16) . no
C4 H1 3.157(15) . no
C4 H3 3.269(16) . no
C4 H6 2.774(16) . no
C5 H2 3.189(15) . no
C5 H4 3.259(16) . no
C5 H6 2.707(17) . no
C6 H1 2.486(15) . no
C6 H5 2.716(15) . no
C6 H7 3.227(17) . no
C6 H9 3.165(17) . no
C7 H5 2.767(16) . no
C7 H8 3.252(18) . no
C8 H9 3.310(17) . no
C9 H6 3.259(17) . no
C10 H1 3.541(15) . no
C10 H7 3.247(18) . no
H1 H2 2.19(2) . no
H2 H3 2.34(3) . no
H3 H4 2.41(3) . no
H4 H5 2.32(3) . no
H5 H6 2.28(3) . no
H6 H7 2.32(3) . no
H7 H8 2.37(3) . no
H8 H9 2.42(3) . no
S1 H1 3.165(15) . no
S1 H2 3.055(15) . no
S1 H3 3.286(16) 5_656 no
S1 H4 3.438(16) 2_545 no
S1 H5 3.134(15) 2_545 no
S1 H7 3.258(17) 7_646 no
F1 H1 3.370(15) . no
F1 H2 3.361(16) . no
F1 H3 2.605(16) 6_556 no
F1 H4 3.503(16) 6_556 no
F1 H8 2.620(18) 8_556 no
F2 H1 3.318(15) 1_655 no
F2 H5 3.040(15) 2_645 no
F2 H6 2.956(17) 2_645 no
F2 H7 3.443(17) 7_646 no
F2 H8 2.986(17) 8_556 no
F2 H9 2.719(17) 8_556 no
F3 H2 3.173(16) 1_655 no
F3 H3 3.561(16) 1_655 no
F3 H4 2.905(16) 2_645 no
F3 H5 3.286(15) 2_645 no
O1 H1 2.054(15) . no
O1 H2 2.914(15) . no
O1 H5 2.560(15) 2_545 no
O1 H6 3.481(17) 2_545 no
O1 H7 2.626(17) 7_646 no
O1 H8 3.572(17) 7_646 no
O1 H8 3.485(17) 8_556 no
O1 H9 3.448(17) 8_556 no
O2 H1 3.404(15) . no
O2 H2 2.298(16) . no
O2 H2 2.626(15) 5_656 no
O2 H3 2.721(16) 5_656 no
O2 H4 2.611(16) 2_545 no
O2 H4 2.664(16) 6_556 no
O2 H5 3.301(15) 2_545 no
O3 H1 3.404(15) 2_645 no
O3 H3 2.881(16) 5_656 no
O3 H5 3.538(15) 2_545 no
O3 H7 2.982(17) 7_646 no
O3 H8 2.678(18) 7_646 no
N2 H6 3.255(17) 2_545 no
N2 H9 3.583(17) 8_456 no
C1 H3 3.568(16) 6_556 no
C1 H4 3.147(16) 6_556 no
C2 H4 3.431(16) 6_556 no
C3 H2 3.320(15) 6_456 no
C3 H3 3.362(16) 6_456 no
C4 H8 3.596(18) 8_456 no
C6 H8 3.565(18) 8_456 no
C7 H9 3.575(17) 2_555 no
C8 H9 3.396(17) 2_555 no
C10 H6 3.524(17) 2_545 no
C10 H7 3.487(18) 2_545 no
C11 H8 3.302(18) 8_556 no
H1 S1 3.165(15) . no
H1 F1 3.370(15) . no
H1 F2 3.318(15) 1_455 no
H1 O1 2.054(15) . no
H1 O2 3.404(15) . no
H1 O3 3.404(15) 2_655 no
H1 H5 3.13(2) 2_545 no
H1 H8 3.38(3) 8_556 no
H2 S1 3.055(15) . no
H2 F1 3.361(16) . no
H2 F3 3.173(16) 1_455 no
H2 O1 2.914(15) . no
H2 O2 2.298(16) . no
H2 O2 2.626(15) 5_656 no
H2 C3 3.320(15) 6_556 no
H2 H3 3.45(3) 6_556 no
H2 H4 2.97(3) 2_545 no
H2 H4 2.54(3) 6_556 no
H2 H5 3.45(3) 2_545 no
H3 S1 3.286(16) 5_656 no
H3 F1 2.605(16) 6_456 no
H3 F3 3.561(16) 1_455 no
H3 O2 2.721(16) 5_656 no
H3 O3 2.881(16) 5_656 no
H3 C1 3.568(16) 6_456 no
H3 C3 3.362(16) 6_556 no
H3 H2 3.45(3) 6_456 no
H3 H4 3.04(3) 6_556 no
H4 S1 3.438(16) 2_555 no
H4 F1 3.503(16) 6_456 no
H4 F3 2.905(16) 2_655 no
H4 O2 2.611(16) 2_555 no
H4 O2 2.664(16) 6_456 no
H4 C1 3.147(16) 6_456 no
H4 C2 3.431(16) 6_456 no
H4 H2 2.97(3) 2_555 no
H4 H2 2.54(3) 6_456 no
H4 H3 3.04(3) 6_456 no
H5 S1 3.134(15) 2_555 no
H5 F2 3.040(15) 2_655 no
H5 F3 3.286(15) 2_655 no
H5 O1 2.560(15) 2_555 no
H5 O2 3.301(15) 2_555 no
H5 O3 3.538(15) 2_555 no
H5 H1 3.13(2) 2_555 no
H5 H2 3.45(3) 2_555 no
H5 H8 3.38(3) 8_456 no
H6 F2 2.956(17) 2_655 no
H6 O1 3.481(17) 2_555 no
H6 N2 3.255(17) 2_555 no
H6 C10 3.524(17) 2_555 no
H6 H7 3.59(3) 8_456 no
H6 H9 3.05(3) 2_555 no
H6 H9 3.44(3) 7_656 no
H7 S1 3.258(17) 7_656 no
H7 F2 3.443(17) 7_656 no
H7 O1 2.626(17) 7_656 no
H7 O3 2.982(17) 7_656 no
H7 C10 3.487(18) 2_555 no
H7 H6 3.59(3) 8_556 no
H7 H9 2.67(3) 2_555 no
H8 F1 2.620(18) 8_456 no
H8 F2 2.986(17) 8_456 no
H8 O1 3.572(17) 7_656 no
H8 O1 3.485(17) 8_456 no
H8 O3 2.678(18) 7_656 no
H8 C4 3.596(18) 8_556 no
H8 C6 3.565(18) 8_556 no
H8 C11 3.302(18) 8_456 no
H8 H1 3.38(3) 8_456 no
H8 H5 3.38(3) 8_556 no
H9 F2 2.719(17) 8_456 no
H9 O1 3.448(17) 8_456 no
H9 N2 3.583(17) 8_556 no
H9 C7 3.575(17) 2_545 no
H9 C8 3.396(17) 2_545 no
H9 H6 3.05(3) 2_545 no
H9 H6 3.44(3) 7_646 no
H9 H7 2.67(3) 2_545 no
loop_
_geom_hbond_atom_site_label_D
_geom_hbond_atom_site_label_H
_geom_hbond_atom_site_label_A
_geom_hbond_site_symmetry_A
_geom_hbond_distance_DH
_geom_hbond_distance_HA
_geom_hbond_distance_DA
_geom_hbond_angle_DHA
N1 H1 O1 1_555 0.906(15) 2.054(15) 2.8705(13) 149.3(13)
N1 H1 N2 . 0.906(15) 2.273(15) 2.6556(15) 105.0(11)
C1 H2 O2 1_555 0.954(15) 2.299(15) 3.2072(14) 159.0(13)
C4 H5 O1 2_555 0.910(15) 2.561(15) 3.3822(14) 150.3(13)
loop_
_geom_torsion_atom_site_label_1
_geom_torsion_atom_site_label_2
_geom_torsion_atom_site_label_3
_geom_torsion_atom_site_label_4
_geom_torsion
_geom_torsion_publ_flag
O1 S1 C11 F1 -54.89(8) no
O1 S1 C11 F2 64.39(8) no
O1 S1 C11 F3 -175.08(7) no
O2 S1 C11 F1 63.90(8) no
O2 S1 C11 F2 -176.82(7) no
O2 S1 C11 F3 -56.30(9) no
O3 S1 C11 F1 -175.07(7) no
O3 S1 C11 F2 -55.79(8) no
O3 S1 C11 F3 64.73(8) no
C1 N1 C5 C4 -0.60(16) no
C1 N1 C5 C6 177.77(9) no
C5 N1 C1 C2 0.64(17) no
C6 N2 C10 C9 0.20(19) no
C10 N2 C6 C5 -178.50(10) no
C10 N2 C6 C7 0.95(17) no
N1 C1 C2 C3 0.38(17) no
C1 C2 C3 C4 -1.40(18) no
C2 C3 C4 C5 1.45(18) no
C3 C4 C5 N1 -0.46(16) no
C3 C4 C5 C6 -178.67(10) no
N1 C5 C6 N2 -15.39(14) no
N1 C5 C6 C7 165.14(9) no
C4 C5 C6 N2 162.84(10) no
C4 C5 C6 C7 -16.62(17) no
N2 C6 C7 C8 -0.93(18) no
C5 C6 C7 C8 178.48(10) no
C6 C7 C8 C9 -0.25(19) no
C7 C8 C9 C10 1.3(2) no
C8 C9 C10 N2 -1.3(3) no

_cod_database_fobs_code 1546711
