#------------------------------------------------------------------------------
#$Date: 2019-11-17 08:06:05 +0200 (Sun, 17 Nov 2019) $
#$Revision: 228801 $
#$URL: file:///home/coder/svn-repositories/cod/cif/1/54/88/1548897.cif $
#------------------------------------------------------------------------------
#
# This file is available in the Crystallography Open Database (COD),
# http://www.crystallography.net/
#
# All data on this site have been placed in the public domain by the
# contributors.
#
data_1548897
loop_
_publ_author_name
'Call, Arnau'
'Franco, Federico'
'Kandoth, Noufal'
'Fern\'andez, Sergio'
'Gonz\'alez-B\'ejar, Mar\'ia'
'P\'erez-Prieto, Julia'
'Luis, Josep M.'
'Lloret-Fillol, Julio'
_publ_section_title
;
 Understanding light-driven H<sub>2</sub> evolution through the electronic
 tuning of aminopyridine cobalt complexes.
;
_journal_issue                   9
_journal_name_full               'Chemical science'
_journal_page_first              2609
_journal_page_last               2619
_journal_paper_doi               10.1039/c7sc04328g
_journal_volume                  9
_journal_year                    2018
_chemical_formula_moiety         'C16 H23 Cl Co F6 N4 O6 S2'
_chemical_formula_sum            'C16 H23 Cl Co F6 N4 O6 S2'
_chemical_formula_weight         639.88
_space_group_crystal_system      monoclinic
_space_group_IT_number           14
_space_group_name_Hall           '-P 2yn'
_space_group_name_H-M_alt        'P 1 21/n 1'
_symmetry_space_group_name_Hall  '-P 2yn'
_symmetry_space_group_name_H-M   'P 1 21/n 1'
_atom_sites_solution_hydrogens   geom
_audit_creation_method           SHELXL-2013
_audit_update_record
;
2017-10-05 deposited with the CCDC.
2018-02-09 downloaded from the CCDC.
;
_cell_angle_alpha                90
_cell_angle_beta                 97.0660(10)
_cell_angle_gamma                90
_cell_formula_units_Z            4
_cell_length_a                   8.8511(7)
_cell_length_b                   24.5258(19)
_cell_length_c                   11.1501(9)
_cell_measurement_reflns_used    5397
_cell_measurement_temperature    100(2)
_cell_measurement_theta_max      28.29
_cell_measurement_theta_min      2.46
_cell_volume                     2402.1(3)
_computing_cell_refinement       'Bruker SMART'
_computing_data_collection       'Bruker SMART'
_computing_data_reduction        'Bruker SAINT'
_computing_molecular_graphics    'Bruker SHELXTL'
_computing_publication_material  'Bruker SHELXTL'
_computing_structure_refinement  'SHELXL-2013 (Sheldrick, 2013)'
_computing_structure_solution    'SHELXL-2013 (Sheldrick, 2013)'
_diffrn_ambient_temperature      100(2)
_diffrn_measured_fraction_theta_full 0.999
_diffrn_measured_fraction_theta_max 0.934
_diffrn_measurement_device_type  'CCD area detector'
_diffrn_measurement_method       'phi and omega scans'
_diffrn_radiation_monochromator  graphite
_diffrn_radiation_source         'sealed tube'
_diffrn_radiation_type           MoK\a
_diffrn_radiation_wavelength     0.71073
_diffrn_reflns_av_R_equivalents  0.0250
_diffrn_reflns_av_unetI/netI     0.0317
_diffrn_reflns_Laue_measured_fraction_full 0.999
_diffrn_reflns_Laue_measured_fraction_max 0.934
_diffrn_reflns_limit_h_max       11
_diffrn_reflns_limit_h_min       -8
_diffrn_reflns_limit_k_max       31
_diffrn_reflns_limit_k_min       -32
_diffrn_reflns_limit_l_max       14
_diffrn_reflns_limit_l_min       -13
_diffrn_reflns_number            14849
_diffrn_reflns_point_group_measured_fraction_full 0.999
_diffrn_reflns_point_group_measured_fraction_max 0.934
_diffrn_reflns_theta_full        25.242
_diffrn_reflns_theta_max         28.302
_diffrn_reflns_theta_min         1.661
_exptl_absorpt_coefficient_mu    1.088
_exptl_absorpt_correction_T_max  1
_exptl_absorpt_correction_T_min  0.783278
_exptl_absorpt_correction_type   empirical
_exptl_absorpt_process_details   'SADABS v2.10 BRUKER 2001'
_exptl_crystal_colour            red
_exptl_crystal_density_diffrn    1.769
_exptl_crystal_description       prism
_exptl_crystal_F_000             1300
_exptl_crystal_size_max          0.25
_exptl_crystal_size_mid          0.15
_exptl_crystal_size_min          0.08
_refine_diff_density_max         0.941
_refine_diff_density_min         -0.635
_refine_diff_density_rms         0.090
_refine_ls_extinction_method     none
_refine_ls_goodness_of_fit_ref   1.031
_refine_ls_hydrogen_treatment    constr
_refine_ls_matrix_type           full
_refine_ls_number_parameters     327
_refine_ls_number_reflns         5575
_refine_ls_number_restraints     0
_refine_ls_restrained_S_all      1.031
_refine_ls_R_factor_all          0.0538
_refine_ls_R_factor_gt           0.0426
_refine_ls_shift/su_max          0.000
_refine_ls_shift/su_mean         0.000
_refine_ls_structure_factor_coef Fsqd
_refine_ls_weighting_details
'w=1/[\s^2^(Fo^2^)+(0.0605P)^2^+2.2814P] where P=(Fo^2^+2Fc^2^)/3'
_refine_ls_weighting_scheme      calc
_refine_ls_wR_factor_gt          0.1065
_refine_ls_wR_factor_ref         0.1133
_reflns_Friedel_coverage         0.000
_reflns_number_gt                4593
_reflns_number_total             5575
_reflns_threshold_expression     'I > 2\s(I)'
_cod_data_source_file            c7sc04328g2.cif
_cod_data_source_block           aql4p33
_cod_depositor_comments
'Adding full bibliography for 1548897--1548902.cif.'
_cod_database_code               1548897
_shelx_space_group_comment
;
The symmetry employed for this shelxl refinement is uniquely defined
by the following loop, which should always be used as a source of
symmetry information in preference to the above space-group names.
They are only intended as comments.
;
_shelxl_version_number           2013-3
_shelx_res_file
;
TITL aql4p30g in P2(1)/n
CELL 0.71073   8.8511  24.5258  11.1501  90.000  97.066  90.000
ZERR    4.00   0.0007   0.0019   0.0009   0.000   0.001   0.000
LATT  1
SYMM 0.5-X, 0.5+Y, 0.5-Z
SFAC C H N O F S CL CO
UNIT 64 92 16 24 24 8 4 4
LIST 6 ! automatically inserted. Change 6 to 4 for CHECKCIF!!
TEMP -173.5

L.S. 4
BOND $h
conf
acta
FMAP 2
PLAN 5

WGHT    0.060500    2.281400
FVAR       0.32716
CO1   8    0.140176    0.361104    0.334828    11.00000    0.01533    0.01831 =
         0.01963   -0.00054    0.00287   -0.00077
S1    6   -0.047961    0.332460    0.576340    11.00000    0.02101    0.02388 =
         0.02419    0.00107    0.00575   -0.00228
CL1   7   -0.052343    0.101275    0.342873    11.00000    0.04174    0.02058 =
         0.04086    0.00591    0.00638   -0.00461
O1    4    0.028154    0.367617    0.497212    11.00000    0.04529    0.02516 =
         0.02883    0.00001    0.01933   -0.00473
N1    3    0.062709    0.279412    0.328707    11.00000    0.02036    0.02210 =
         0.01846   -0.00032    0.00210    0.00102
C1    1   -0.074479    0.260956    0.280326    11.00000    0.02379    0.02225 =
         0.02119    0.00022    0.00087    0.00075
AFIX  43
H1A   2   -0.145236    0.286184    0.240663    11.00000   -1.20000
AFIX   0
F1    5   -0.160954    0.414439    0.685616    11.00000    0.13140    0.06002 =
         0.06542   -0.00388    0.02480    0.05610
S2    6   -0.202575    0.414293    0.216076    11.00000    0.01778    0.02325 =
         0.02324    0.00079    0.00301    0.00084
N2    3    0.346401    0.319969    0.407335    11.00000    0.01781    0.02755 =
         0.02001    0.00022    0.00192    0.00021
F2    5    0.074214    0.400810    0.739323    11.00000    0.10705    0.07980 =
         0.05341   -0.03728    0.02578   -0.04892
C2    1   -0.116916    0.206906    0.285825    11.00000    0.02398    0.02768 =
         0.02280   -0.00027    0.00351   -0.00498
AFIX  43
H2A   2   -0.215470    0.195107    0.252586    11.00000   -1.20000
AFIX   0
O2    4   -0.201555    0.318476    0.534526    11.00000    0.02444    0.04836 =
         0.05897    0.00075   -0.00238   -0.00126
O3    4    0.046222    0.288446    0.627878    11.00000    0.03471    0.02675 =
         0.03592    0.00415    0.00285    0.00197
C3    1   -0.011046    0.170507    0.341386    11.00000    0.03410    0.01718 =
         0.02226    0.00217    0.00728   -0.00273
N3    3    0.270659    0.433045    0.384811    11.00000    0.02173    0.02388 =
         0.02177   -0.00217    0.00424   -0.00287
F3    5   -0.087188    0.348310    0.802434    11.00000    0.10003    0.05211 =
         0.04039    0.00483    0.03852   -0.00219
F4    5   -0.354620    0.480433    0.060950    11.00000    0.03002    0.03211 =
         0.04965    0.00847   -0.00235    0.00958
O4    4   -0.038855    0.405510    0.242709    11.00000    0.01896    0.03001 =
         0.02801    0.00565    0.00294    0.00268
N4    3    0.255642    0.364438    0.175738    11.00000    0.01997    0.02361 =
         0.02149   -0.00124    0.00427    0.00104
C4    1    0.128483    0.188739    0.396234    11.00000    0.02720    0.02463 =
         0.02336    0.00569    0.00414    0.00459
AFIX  43
H4A   2    0.200000    0.164294    0.437771    11.00000   -1.20000
AFIX   0
F5    5   -0.169889    0.439137   -0.009511    11.00000    0.04256    0.04431 =
         0.02719    0.00760    0.00769    0.00587
O5    4   -0.269908    0.443571    0.307002    11.00000    0.02890    0.04575 =
         0.03222   -0.00850    0.00779    0.00484
C5    1    0.160495    0.243898    0.388567    11.00000    0.02448    0.02451 =
         0.01788    0.00062    0.00409    0.00008
O6    4   -0.284671    0.367453    0.165012    11.00000    0.02654    0.02258 =
         0.03309    0.00212    0.00085   -0.00395
F6    5   -0.122910    0.505242    0.115926    11.00000    0.04664    0.02587 =
         0.05953    0.00833   -0.00259   -0.01346
C6    1    0.303341    0.267530    0.458066    11.00000    0.02224    0.02587 =
         0.02410    0.00345   -0.00043    0.00189
AFIX  23
H6A   2    0.286569    0.272931    0.543421    11.00000   -1.20000
H6B   2    0.388052    0.241281    0.456522    11.00000   -1.20000
AFIX   0
C7    1    0.413005    0.358604    0.502942    11.00000    0.02129    0.03388 =
         0.02208    0.00071   -0.00152   -0.00187
AFIX  23
H7A   2    0.516839    0.346440    0.534909    11.00000   -1.20000
H7B   2    0.350111    0.358593    0.570479    11.00000   -1.20000
AFIX   0
C8    1    0.420108    0.416254    0.452437    11.00000    0.02362    0.03030 =
         0.02474   -0.00221    0.00048   -0.00616
AFIX  23
H8A   2    0.448364    0.442068    0.519724    11.00000   -1.20000
H8B   2    0.499902    0.417919    0.397632    11.00000   -1.20000
AFIX   0
C9    1    0.191844    0.471947    0.458009    11.00000    0.03687    0.02503 =
         0.03170   -0.00768    0.01258   -0.00480
AFIX 137
H9A   2    0.249479    0.506122    0.467182    11.00000   -1.50000
H9B   2    0.184721    0.456187    0.537886    11.00000   -1.50000
H9C   2    0.089296    0.479216    0.417289    11.00000   -1.50000
AFIX   0
C10   1    0.288939    0.457819    0.265530    11.00000    0.02428    0.02173 =
         0.02804    0.00034    0.00723   -0.00399
AFIX  23
H10A  2    0.362447    0.488341    0.277449    11.00000   -1.20000
H10B  2    0.189967    0.472798    0.229056    11.00000   -1.20000
AFIX   0
C11   1    0.345050    0.416285    0.179641    11.00000    0.02136    0.02609 =
         0.02557    0.00166    0.00664   -0.00254
AFIX  23
H11A  2    0.337112    0.432093    0.097410    11.00000   -1.20000
H11B  2    0.453676    0.408177    0.205819    11.00000   -1.20000
AFIX   0
C13   1    0.152721    0.360317    0.060474    11.00000    0.02915    0.03197 =
         0.02139    0.00088   -0.00009    0.00132
AFIX 137
H13A  2    0.213373    0.355337   -0.006554    11.00000   -1.50000
H13B  2    0.092480    0.393806    0.047745    11.00000   -1.50000
H13C  2    0.084364    0.329089    0.064142    11.00000   -1.50000
AFIX   0
C14   1    0.357536    0.315933    0.185814    11.00000    0.02403    0.02483 =
         0.02391   -0.00123    0.00455    0.00536
AFIX  23
H14A  2    0.429036    0.318367    0.124371    11.00000   -1.20000
H14B  2    0.295766    0.282488    0.169621    11.00000   -1.20000
AFIX   0
C15   1    0.447080    0.312266    0.310743    11.00000    0.02079    0.03277 =
         0.02576    0.00119    0.00444    0.00536
AFIX  23
H15A  2    0.497150    0.276175    0.320664    11.00000   -1.20000
H15B  2    0.527531    0.340535    0.318928    11.00000   -1.20000
AFIX   0
C16   1   -0.057880    0.377045    0.706385    11.00000    0.05577    0.02959 =
         0.03562   -0.00009    0.02375   -0.00036
C17   1   -0.212879    0.462427    0.089932    11.00000    0.02409    0.02155 =
         0.03594    0.00454   -0.00011    0.00092

HKLF 4

REM  aql4p30g in P2(1)/n
REM R1 =  0.0426 for    4593 Fo > 4sig(Fo)  and  0.0538 for all    5575 data
REM    327 parameters refined using      0 restraints

END

WGHT      0.0605      2.2814

REM Highest difference peak  0.941,  deepest hole -0.635,  1-sigma level  0.090
Q1    1   0.1777  0.3484  0.3961  11.00000  0.05    0.94
Q2    1  -0.1934  0.3636  0.7523  11.00000  0.05    0.76
Q3    1  -0.1409  0.3967  0.1604  11.00000  0.05    0.70
Q4    1  -0.0568  0.3584  0.6359  11.00000  0.05    0.60
Q5    1  -0.0017  0.4232  0.7098  11.00000  0.05    0.56
;
_shelx_res_checksum              3338
loop_
_space_group_symop_operation_xyz
'x, y, z'
'-x+1/2, y+1/2, -z+1/2'
'-x, -y, -z'
'x-1/2, -y-1/2, z-1/2'
loop_
_atom_site_label
_atom_site_type_symbol
_atom_site_fract_x
_atom_site_fract_y
_atom_site_fract_z
_atom_site_U_iso_or_equiv
_atom_site_adp_type
_atom_site_occupancy
_atom_site_site_symmetry_order
_atom_site_calc_flag
_atom_site_refinement_flags_posn
_atom_site_refinement_flags_adp
Co1 Co 0.14018(4) 0.36110(2) 0.33483(3) 0.01770(10) Uani 1 1 d . .
S1 S -0.04796(7) 0.33246(3) 0.57634(6) 0.02278(15) Uani 1 1 d . .
Cl1 Cl -0.05234(9) 0.10128(3) 0.34287(7) 0.03429(18) Uani 1 1 d . .
O1 O 0.0282(3) 0.36762(8) 0.49721(19) 0.0319(5) Uani 1 1 d . .
N1 N 0.0627(2) 0.27941(9) 0.32871(19) 0.0203(4) Uani 1 1 d . .
C1 C -0.0745(3) 0.26096(11) 0.2803(2) 0.0226(5) Uani 1 1 d . .
H1A H -0.1452 0.2862 0.2407 0.027 Uiso 1 1 calc R U
F1 F -0.1610(4) 0.41444(11) 0.6856(2) 0.0846(10) Uani 1 1 d . .
S2 S -0.20257(7) 0.41429(3) 0.21608(6) 0.02138(15) Uani 1 1 d . .
N2 N 0.3464(2) 0.31997(9) 0.4073(2) 0.0218(5) Uani 1 1 d . .
F2 F 0.0742(3) 0.40081(12) 0.7393(2) 0.0788(9) Uani 1 1 d . .
C2 C -0.1169(3) 0.20691(12) 0.2858(2) 0.0248(6) Uani 1 1 d . .
H2A H -0.2155 0.1951 0.2526 0.030 Uiso 1 1 calc R U
O2 O -0.2016(2) 0.31848(10) 0.5345(2) 0.0445(6) Uani 1 1 d . .
O3 O 0.0462(2) 0.28845(9) 0.62788(19) 0.0326(5) Uani 1 1 d . .
C3 C -0.0110(3) 0.17051(11) 0.3414(2) 0.0242(6) Uani 1 1 d . .
N3 N 0.2707(3) 0.43304(9) 0.3848(2) 0.0223(5) Uani 1 1 d . .
F3 F -0.0872(3) 0.34831(10) 0.8024(2) 0.0617(7) Uani 1 1 d . .
F4 F -0.3546(2) 0.48043(7) 0.06095(17) 0.0379(4) Uani 1 1 d . .
O4 O -0.0389(2) 0.40551(8) 0.24271(17) 0.0257(4) Uani 1 1 d . .
N4 N 0.2556(2) 0.36444(9) 0.1757(2) 0.0215(5) Uani 1 1 d . .
C4 C 0.1285(3) 0.18874(11) 0.3962(2) 0.0250(6) Uani 1 1 d . .
H4A H 0.2000 0.1643 0.4378 0.030 Uiso 1 1 calc R U
F5 F -0.1699(2) 0.43914(8) -0.00951(16) 0.0377(4) Uani 1 1 d . .
O5 O -0.2699(2) 0.44357(10) 0.30700(19) 0.0353(5) Uani 1 1 d . .
C5 C 0.1605(3) 0.24390(11) 0.3886(2) 0.0222(5) Uani 1 1 d . .
O6 O -0.2847(2) 0.36745(8) 0.16501(19) 0.0276(4) Uani 1 1 d . .
F6 F -0.1229(2) 0.50524(8) 0.11593(19) 0.0448(5) Uani 1 1 d . .
C6 C 0.3033(3) 0.26753(11) 0.4581(2) 0.0243(6) Uani 1 1 d . .
H6A H 0.2866 0.2729 0.5434 0.029 Uiso 1 1 calc R U
H6B H 0.3881 0.2413 0.4565 0.029 Uiso 1 1 calc R U
C7 C 0.4130(3) 0.35860(12) 0.5029(2) 0.0261(6) Uani 1 1 d . .
H7A H 0.5168 0.3464 0.5349 0.031 Uiso 1 1 calc R U
H7B H 0.3501 0.3586 0.5705 0.031 Uiso 1 1 calc R U
C8 C 0.4201(3) 0.41625(12) 0.4524(3) 0.0264(6) Uani 1 1 d . .
H8A H 0.4484 0.4421 0.5197 0.032 Uiso 1 1 calc R U
H8B H 0.4999 0.4179 0.3976 0.032 Uiso 1 1 calc R U
C9 C 0.1918(4) 0.47195(12) 0.4580(3) 0.0305(6) Uani 1 1 d . .
H9A H 0.2495 0.5061 0.4672 0.046 Uiso 1 1 calc R U
H9B H 0.1847 0.4562 0.5379 0.046 Uiso 1 1 calc R U
H9C H 0.0893 0.4792 0.4173 0.046 Uiso 1 1 calc R U
C10 C 0.2889(3) 0.45782(11) 0.2655(2) 0.0244(5) Uani 1 1 d . .
H10A H 0.3624 0.4883 0.2774 0.029 Uiso 1 1 calc R U
H10B H 0.1900 0.4728 0.2291 0.029 Uiso 1 1 calc R U
C11 C 0.3450(3) 0.41628(11) 0.1796(2) 0.0240(6) Uani 1 1 d . .
H11A H 0.3371 0.4321 0.0974 0.029 Uiso 1 1 calc R U
H11B H 0.4537 0.4082 0.2058 0.029 Uiso 1 1 calc R U
C13 C 0.1527(3) 0.36032(12) 0.0605(2) 0.0278(6) Uani 1 1 d . .
H13A H 0.2134 0.3553 -0.0066 0.042 Uiso 1 1 calc R U
H13B H 0.0925 0.3938 0.0477 0.042 Uiso 1 1 calc R U
H13C H 0.0844 0.3291 0.0641 0.042 Uiso 1 1 calc R U
C14 C 0.3575(3) 0.31593(11) 0.1858(2) 0.0241(5) Uani 1 1 d . .
H14A H 0.4290 0.3184 0.1244 0.029 Uiso 1 1 calc R U
H14B H 0.2958 0.2825 0.1696 0.029 Uiso 1 1 calc R U
C15 C 0.4471(3) 0.31227(12) 0.3107(2) 0.0263(6) Uani 1 1 d . .
H15A H 0.4971 0.2762 0.3207 0.032 Uiso 1 1 calc R U
H15B H 0.5275 0.3405 0.3189 0.032 Uiso 1 1 calc R U
C16 C -0.0579(4) 0.37705(14) 0.7064(3) 0.0388(8) Uani 1 1 d . .
C17 C -0.2129(3) 0.46243(11) 0.0899(3) 0.0275(6) Uani 1 1 d . .
loop_
_atom_site_aniso_label
_atom_site_aniso_U_11
_atom_site_aniso_U_22
_atom_site_aniso_U_33
_atom_site_aniso_U_23
_atom_site_aniso_U_13
_atom_site_aniso_U_12
Co1 0.01533(17) 0.01831(18) 0.01963(18) -0.00054(13) 0.00287(13) -0.00077(12)
S1 0.0210(3) 0.0239(3) 0.0242(3) 0.0011(2) 0.0057(2) -0.0023(2)
Cl1 0.0417(4) 0.0206(3) 0.0409(4) 0.0059(3) 0.0064(3) -0.0046(3)
O1 0.0453(13) 0.0252(10) 0.0288(10) 0.0000(8) 0.0193(9) -0.0047(9)
N1 0.0204(11) 0.0221(11) 0.0185(10) -0.0003(8) 0.0021(8) 0.0010(9)
C1 0.0238(13) 0.0223(13) 0.0212(12) 0.0002(10) 0.0009(10) 0.0007(10)
F1 0.131(3) 0.0600(17) 0.0654(17) -0.0039(13) 0.0248(17) 0.0561(17)
S2 0.0178(3) 0.0232(3) 0.0232(3) 0.0008(2) 0.0030(2) 0.0008(2)
N2 0.0178(10) 0.0275(12) 0.0200(10) 0.0002(9) 0.0019(8) 0.0002(9)
F2 0.107(2) 0.0798(19) 0.0534(14) -0.0373(13) 0.0258(14) -0.0489(16)
C2 0.0240(13) 0.0277(14) 0.0228(13) -0.0003(11) 0.0035(10) -0.0050(11)
O2 0.0244(11) 0.0484(14) 0.0590(16) 0.0007(12) -0.0024(10) -0.0013(10)
O3 0.0347(12) 0.0267(11) 0.0359(11) 0.0041(9) 0.0028(9) 0.0020(9)
C3 0.0341(15) 0.0172(12) 0.0223(13) 0.0022(10) 0.0073(11) -0.0027(11)
N3 0.0217(11) 0.0239(11) 0.0218(11) -0.0022(9) 0.0042(9) -0.0029(9)
F3 0.100(2) 0.0521(14) 0.0404(12) 0.0048(10) 0.0385(12) -0.0022(13)
F4 0.0300(9) 0.0321(10) 0.0496(11) 0.0085(8) -0.0023(8) 0.0096(7)
O4 0.0190(9) 0.0300(11) 0.0280(10) 0.0056(8) 0.0029(8) 0.0027(8)
N4 0.0200(11) 0.0236(11) 0.0215(11) -0.0012(9) 0.0043(9) 0.0010(9)
C4 0.0272(14) 0.0246(14) 0.0234(13) 0.0057(11) 0.0041(11) 0.0046(11)
F5 0.0426(11) 0.0443(11) 0.0272(9) 0.0076(8) 0.0077(8) 0.0059(8)
O5 0.0289(11) 0.0458(13) 0.0322(11) -0.0085(10) 0.0078(9) 0.0048(9)
C5 0.0245(13) 0.0245(13) 0.0179(12) 0.0006(10) 0.0041(10) 0.0001(10)
O6 0.0265(10) 0.0226(10) 0.0331(11) 0.0021(8) 0.0008(8) -0.0039(8)
F6 0.0466(11) 0.0259(9) 0.0595(13) 0.0083(9) -0.0026(9) -0.0135(8)
C6 0.0222(13) 0.0259(14) 0.0241(13) 0.0035(11) -0.0004(10) 0.0019(10)
C7 0.0213(13) 0.0339(15) 0.0221(13) 0.0007(11) -0.0015(10) -0.0019(11)
C8 0.0236(14) 0.0303(15) 0.0247(13) -0.0022(11) 0.0005(11) -0.0062(11)
C9 0.0369(16) 0.0250(14) 0.0317(15) -0.0077(12) 0.0126(12) -0.0048(12)
C10 0.0243(13) 0.0217(13) 0.0280(13) 0.0003(11) 0.0072(11) -0.0040(10)
C11 0.0214(13) 0.0261(14) 0.0256(13) 0.0017(11) 0.0066(10) -0.0025(10)
C13 0.0291(15) 0.0320(15) 0.0214(13) 0.0009(11) -0.0001(11) 0.0013(12)
C14 0.0240(13) 0.0248(14) 0.0239(13) -0.0012(10) 0.0045(10) 0.0054(11)
C15 0.0208(13) 0.0328(15) 0.0258(13) 0.0012(11) 0.0044(11) 0.0054(11)
C16 0.056(2) 0.0296(16) 0.0356(17) -0.0001(13) 0.0238(16) -0.0004(15)
C17 0.0241(14) 0.0215(13) 0.0359(15) 0.0045(12) -0.0001(11) 0.0009(11)
loop_
_atom_type_symbol
_atom_type_description
_atom_type_scat_dispersion_real
_atom_type_scat_dispersion_imag
_atom_type_scat_source
C C 0.0033 0.0016 'International Tables Vol C Tables 4.2.6.8 and 6.1.1.4'
H H 0.0000 0.0000 'International Tables Vol C Tables 4.2.6.8 and 6.1.1.4'
N N 0.0061 0.0033 'International Tables Vol C Tables 4.2.6.8 and 6.1.1.4'
O O 0.0106 0.0060 'International Tables Vol C Tables 4.2.6.8 and 6.1.1.4'
F F 0.0171 0.0103 'International Tables Vol C Tables 4.2.6.8 and 6.1.1.4'
S S 0.1246 0.1234 'International Tables Vol C Tables 4.2.6.8 and 6.1.1.4'
Cl Cl 0.1484 0.1585 'International Tables Vol C Tables 4.2.6.8 and 6.1.1.4'
Co Co 0.3494 0.9721 'International Tables Vol C Tables 4.2.6.8 and 6.1.1.4'
loop_
_geom_angle_atom_site_label_1
_geom_angle_atom_site_label_2
_geom_angle_atom_site_label_3
_geom_angle
O4 Co1 N1 104.77(8)
O4 Co1 N3 92.90(8)
N1 Co1 N3 161.69(9)
O4 Co1 N2 170.61(8)
N1 Co1 N2 79.92(9)
N3 Co1 N2 83.30(9)
O4 Co1 N4 89.04(8)
N1 Co1 N4 101.19(8)
N3 Co1 N4 83.57(8)
N2 Co1 N4 82.01(8)
O4 Co1 O1 88.57(8)
N1 Co1 O1 85.26(8)
N3 Co1 O1 90.53(8)
N2 Co1 O1 100.02(9)
N4 Co1 O1 173.52(8)
O2 S1 O3 115.64(14)
O2 S1 O1 116.00(15)
O3 S1 O1 113.41(13)
O2 S1 C16 105.48(16)
O3 S1 C16 102.36(15)
O1 S1 C16 101.38(14)
S1 O1 Co1 138.85(13)
C1 N1 C5 118.4(2)
C1 N1 Co1 127.20(18)
C5 N1 Co1 114.25(17)
N1 C1 C2 122.8(2)
N1 C1 H1A 118.6
C2 C1 H1A 118.6
O5 S2 O6 116.55(13)
O5 S2 O4 114.82(12)
O6 S2 O4 113.78(12)
O5 S2 C17 103.60(14)
O6 S2 C17 103.65(13)
O4 S2 C17 101.89(12)
C6 N2 C15 111.8(2)
C6 N2 C7 112.2(2)
C15 N2 C7 112.2(2)
C6 N2 Co1 107.79(15)
C15 N2 Co1 110.01(16)
C7 N2 Co1 102.28(16)
C1 C2 C3 117.8(3)
C1 C2 H2A 121.1
C3 C2 H2A 121.1
C4 C3 C2 120.5(2)
C4 C3 Cl1 119.3(2)
C2 C3 Cl1 120.2(2)
C9 N3 C10 109.8(2)
C9 N3 C8 110.2(2)
C10 N3 C8 112.1(2)
C9 N3 Co1 113.41(17)
C10 N3 Co1 102.58(15)
C8 N3 Co1 108.58(17)
S2 O4 Co1 148.50(13)
C13 N4 C14 108.2(2)
C13 N4 C11 110.4(2)
C14 N4 C11 111.3(2)
C13 N4 Co1 114.04(17)
C14 N4 Co1 104.58(16)
C11 N4 Co1 108.13(16)
C3 C4 C5 117.8(2)
C3 C4 H4A 121.1
C5 C4 H4A 121.1
N1 C5 C4 122.6(2)
N1 C5 C6 116.8(2)
C4 C5 C6 120.4(2)
N2 C6 C5 112.1(2)
N2 C6 H6A 109.2
C5 C6 H6A 109.2
N2 C6 H6B 109.2
C5 C6 H6B 109.2
H6A C6 H6B 107.9
N2 C7 C8 110.8(2)
N2 C7 H7A 109.5
C8 C7 H7A 109.5
N2 C7 H7B 109.5
C8 C7 H7B 109.5
H7A C7 H7B 108.1
N3 C8 C7 111.5(2)
N3 C8 H8A 109.3
C7 C8 H8A 109.3
N3 C8 H8B 109.3
C7 C8 H8B 109.3
H8A C8 H8B 108.0
N3 C9 H9A 109.5
N3 C9 H9B 109.5
H9A C9 H9B 109.5
N3 C9 H9C 109.5
H9A C9 H9C 109.5
H9B C9 H9C 109.5
N3 C10 C11 111.6(2)
N3 C10 H10A 109.3
C11 C10 H10A 109.3
N3 C10 H10B 109.3
C11 C10 H10B 109.3
H10A C10 H10B 108.0
N4 C11 C10 112.0(2)
N4 C11 H11A 109.2
C10 C11 H11A 109.2
N4 C11 H11B 109.2
C10 C11 H11B 109.2
H11A C11 H11B 107.9
N4 C13 H13A 109.5
N4 C13 H13B 109.5
H13A C13 H13B 109.5
N4 C13 H13C 109.5
H13A C13 H13C 109.5
H13B C13 H13C 109.5
N4 C14 C15 111.1(2)
N4 C14 H14A 109.4
C15 C14 H14A 109.4
N4 C14 H14B 109.4
C15 C14 H14B 109.4
H14A C14 H14B 108.0
N2 C15 C14 111.4(2)
N2 C15 H15A 109.4
C14 C15 H15A 109.4
N2 C15 H15B 109.4
C14 C15 H15B 109.4
H15A C15 H15B 108.0
F1 C16 F2 108.6(3)
F1 C16 F3 108.4(3)
F2 C16 F3 105.3(3)
F1 C16 S1 112.6(3)
F2 C16 S1 111.0(2)
F3 C16 S1 110.7(2)
F6 C17 F4 108.2(2)
F6 C17 F5 107.1(2)
F4 C17 F5 107.1(2)
F6 C17 S2 111.7(2)
F4 C17 S2 110.9(2)
F5 C17 S2 111.58(19)
loop_
_geom_bond_atom_site_label_1
_geom_bond_atom_site_label_2
_geom_bond_distance
Co1 O4 2.0861(19)
Co1 N1 2.116(2)
Co1 N3 2.145(2)
Co1 N2 2.154(2)
Co1 N4 2.155(2)
Co1 O1 2.175(2)
S1 O2 1.424(2)
S1 O3 1.440(2)
S1 O1 1.457(2)
S1 C16 1.827(3)
Cl1 C3 1.737(3)
N1 C1 1.345(3)
N1 C5 1.346(3)
C1 C2 1.381(4)
C1 H1A 0.9500
F1 C16 1.294(4)
S2 O5 1.431(2)
S2 O6 1.439(2)
S2 O4 1.4590(19)
S2 C17 1.830(3)
N2 C6 1.474(3)
N2 C15 1.492(3)
N2 C7 1.492(3)
F2 C16 1.318(4)
C2 C3 1.384(4)
C2 H2A 0.9500
C3 C4 1.383(4)
N3 C9 1.484(3)
N3 C10 1.489(3)
N3 C8 1.498(4)
F3 C16 1.334(4)
F4 C17 1.332(3)
N4 C13 1.485(3)
N4 C14 1.489(3)
N4 C11 1.496(3)
C4 C5 1.387(4)
C4 H4A 0.9500
F5 C17 1.343(3)
C5 C6 1.515(4)
F6 C17 1.328(3)
C6 H6A 0.9900
C6 H6B 0.9900
C7 C8 1.526(4)
C7 H7A 0.9900
C7 H7B 0.9900
C8 H8A 0.9900
C8 H8B 0.9900
C9 H9A 0.9800
C9 H9B 0.9800
C9 H9C 0.9800
C10 C11 1.523(4)
C10 H10A 0.9900
C10 H10B 0.9900
C11 H11A 0.9900
C11 H11B 0.9900
C13 H13A 0.9800
C13 H13B 0.9800
C13 H13C 0.9800
C14 C15 1.518(4)
C14 H14A 0.9900
C14 H14B 0.9900
C15 H15A 0.9900
C15 H15B 0.9900
loop_
_geom_torsion_atom_site_label_1
_geom_torsion_atom_site_label_2
_geom_torsion_atom_site_label_3
_geom_torsion_atom_site_label_4
_geom_torsion
O2 S1 O1 Co1 -79.7(2)
O3 S1 O1 Co1 57.7(3)
C16 S1 O1 Co1 166.6(2)
C5 N1 C1 C2 -2.4(4)
Co1 N1 C1 C2 -176.9(2)
N1 C1 C2 C3 -1.5(4)
C1 C2 C3 C4 4.2(4)
C1 C2 C3 Cl1 -175.8(2)
O5 S2 O4 Co1 79.4(3)
O6 S2 O4 Co1 -58.5(3)
C17 S2 O4 Co1 -169.4(2)
C2 C3 C4 C5 -2.9(4)
Cl1 C3 C4 C5 177.1(2)
C1 N1 C5 C4 3.7(4)
Co1 N1 C5 C4 179.0(2)
C1 N1 C5 C6 -170.8(2)
Co1 N1 C5 C6 4.4(3)
C3 C4 C5 N1 -1.1(4)
C3 C4 C5 C6 173.2(2)
C15 N2 C6 C5 -88.5(3)
C7 N2 C6 C5 144.4(2)
Co1 N2 C6 C5 32.6(3)
N1 C5 C6 N2 -25.8(3)
C4 C5 C6 N2 159.5(2)
C6 N2 C7 C8 -166.1(2)
C15 N2 C7 C8 67.0(3)
Co1 N2 C7 C8 -50.9(2)
C9 N3 C8 C7 104.8(3)
C10 N3 C8 C7 -132.6(2)
Co1 N3 C8 C7 -20.0(3)
N2 C7 C8 N3 49.7(3)
C9 N3 C10 C11 -170.5(2)
C8 N3 C10 C11 66.6(3)
Co1 N3 C10 C11 -49.7(2)
C13 N4 C11 C10 106.5(3)
C14 N4 C11 C10 -133.3(2)
Co1 N4 C11 C10 -18.9(3)
N3 C10 C11 N4 48.2(3)
C13 N4 C14 C15 -170.2(2)
C11 N4 C14 C15 68.3(3)
Co1 N4 C14 C15 -48.3(2)
C6 N2 C15 C14 99.2(3)
C7 N2 C15 C14 -133.7(2)
Co1 N2 C15 C14 -20.6(3)
N4 C14 C15 N2 47.4(3)
O2 S1 C16 F1 -46.4(3)
O3 S1 C16 F1 -167.7(3)
O1 S1 C16 F1 74.9(3)
O2 S1 C16 F2 -168.3(3)
O3 S1 C16 F2 70.3(3)
O1 S1 C16 F2 -47.0(3)
O2 S1 C16 F3 75.1(3)
O3 S1 C16 F3 -46.2(3)
O1 S1 C16 F3 -163.5(3)
O5 S2 C17 F6 67.3(2)
O6 S2 C17 F6 -170.5(2)
O4 S2 C17 F6 -52.1(2)
O5 S2 C17 F4 -53.5(2)
O6 S2 C17 F4 68.7(2)
O4 S2 C17 F4 -172.96(19)
O5 S2 C17 F5 -172.84(19)
O6 S2 C17 F5 -50.7(2)
O4 S2 C17 F5 67.7(2)
