#------------------------------------------------------------------------------
#$Date: 2019-11-17 13:05:40 +0200 (Sun, 17 Nov 2019) $
#$Revision: 230041 $
#$URL: file:///home/coder/svn-repositories/cod/cif/1/54/89/1548933.cif $
#------------------------------------------------------------------------------
#
# This file is available in the Crystallography Open Database (COD),
# http://www.crystallography.net/
#
# All data on this site have been placed in the public domain by the
# contributors.
#
data_1548933
loop_
_publ_author_name
'Chen, Wen-Bin'
'Chen, Yan-Cong'
'Yang, Meng'
'Tong, Ming-Liang'
'Dong, Wen'
_publ_section_title
;
 Water molecule induced reversible single-crystal-to-single-crystal
 transformation between two trinuclear Fe(ii) complexes with different
 spin crossover behaviour.
;
_journal_issue                   12
_journal_name_full
'Dalton transactions (Cambridge, England : 2003)'
_journal_page_first              4307
_journal_page_last               4314
_journal_paper_doi               10.1039/c8dt00318a
_journal_volume                  47
_journal_year                    2018
_chemical_formula_moiety         'C16 H28 Fe3 N28 O2 S4, 2(C N S), H2 O'
_chemical_formula_sum            'C18 H30 Fe3 N30 O3 S6'
_chemical_formula_weight         1074.63
_space_group_crystal_system      orthorhombic
_space_group_IT_number           19
_space_group_name_Hall           'P 2ac 2ab'
_space_group_name_H-M_alt        'P 21 21 21'
_symmetry_space_group_name_Hall  'P 2ac 2ab'
_symmetry_space_group_name_H-M   'P 21 21 21'
_atom_sites_solution_hydrogens   mixed
_audit_creation_date             2018-02-08
_audit_creation_method
;
Olex2 1.2
(compiled 2017.08.10 svn.r3458 for OlexSys, GUI svn.r5381)
;
_audit_update_record
;
2018-02-09 deposited with the CCDC.
2018-02-09 downloaded from the CCDC.
;
_cell_angle_alpha                90
_cell_angle_beta                 90
_cell_angle_gamma                90
_cell_formula_units_Z            4
_cell_length_a                   10.8419(3)
_cell_length_b                   11.7415(4)
_cell_length_c                   31.5503(9)
_cell_measurement_reflns_used    9901
_cell_measurement_temperature    150(2)
_cell_measurement_theta_max      25.267
_cell_measurement_theta_min      2.28
_cell_volume                     4016.4(2)
_computing_cell_refinement       'SAINT v7.34A (Bruker, 200?)'
_computing_data_collection       'Bruker SMART'
_computing_data_reduction        'SAINT v7.34A (Bruker, 200?)'
_computing_molecular_graphics    'Olex2 (Dolomanov et al., 2009)'
_computing_publication_material  'Olex2 (Dolomanov et al., 2009)'
_computing_structure_refinement  'ShelXL (Sheldrick, 2015)'
_computing_structure_solution    'Bruker SHELXTL'
_diffrn_ambient_temperature      150.15
_diffrn_measured_fraction_theta_full 0.999
_diffrn_measured_fraction_theta_max 0.990
_diffrn_measurement_device_type  'CCD area detector'
_diffrn_measurement_method       'phi and omega scans'
_diffrn_radiation_monochromator  graphite
_diffrn_radiation_type           MoK\a
_diffrn_radiation_wavelength     0.71073
_diffrn_reflns_av_R_equivalents  0.0581
_diffrn_reflns_av_unetI/netI     0.0369
_diffrn_reflns_Laue_measured_fraction_full 0.999
_diffrn_reflns_Laue_measured_fraction_max 0.990
_diffrn_reflns_limit_h_max       13
_diffrn_reflns_limit_h_min       -13
_diffrn_reflns_limit_k_max       15
_diffrn_reflns_limit_k_min       -15
_diffrn_reflns_limit_l_max       40
_diffrn_reflns_limit_l_min       -40
_diffrn_reflns_number            64948
_diffrn_reflns_point_group_measured_fraction_full 0.999
_diffrn_reflns_point_group_measured_fraction_max 0.989
_diffrn_reflns_theta_full        25.242
_diffrn_reflns_theta_max         27.595
_diffrn_reflns_theta_min         1.851
_exptl_absorpt_coefficient_mu    1.451
_exptl_absorpt_correction_T_max  0.6985
_exptl_absorpt_correction_T_min  0.5947
_exptl_absorpt_correction_type   multi-scan
_exptl_absorpt_process_details   'SADABS (Sheldrick,1996)'
_exptl_crystal_colour            red
_exptl_crystal_colour_primary    red
_exptl_crystal_density_diffrn    1.777
_exptl_crystal_density_method    'not measured'
_exptl_crystal_description       block
_exptl_crystal_F_000             2184
_exptl_crystal_size_max          0.15
_exptl_crystal_size_mid          0.13
_exptl_crystal_size_min          0.1
_refine_diff_density_max         0.495
_refine_diff_density_min         -0.489
_refine_diff_density_rms         0.067
_refine_ls_abs_structure_details
;
 Flack x determined using 3282 quotients [(I+)-(I-)]/[(I+)+(I-)]
 (Parsons, Flack and Wagner, Acta Cryst. B69 (2013) 249-259).
;
_refine_ls_abs_structure_Flack   0.015(6)
_refine_ls_extinction_method     none
_refine_ls_goodness_of_fit_ref   1.029
_refine_ls_hydrogen_treatment    constr
_refine_ls_matrix_type           full
_refine_ls_number_parameters     541
_refine_ls_number_reflns         9202
_refine_ls_number_restraints     0
_refine_ls_restrained_S_all      1.029
_refine_ls_R_factor_all          0.0406
_refine_ls_R_factor_gt           0.0322
_refine_ls_shift/su_max          0.001
_refine_ls_shift/su_mean         0.000
_refine_ls_structure_factor_coef Fsqd
_refine_ls_weighting_details
'w=1/[\s^2^(Fo^2^)+(0.0379P)^2^+1.5114P] where P=(Fo^2^+2Fc^2^)/3'
_refine_ls_weighting_scheme      calc
_refine_ls_wR_factor_gt          0.0726
_refine_ls_wR_factor_ref         0.0763
_reflns_Friedel_coverage         0.789
_reflns_Friedel_fraction_full    1.000
_reflns_Friedel_fraction_max     0.988
_reflns_number_gt                8126
_reflns_number_total             9202
_reflns_threshold_expression     'I > 2\s(I)'
_iucr_refine_instructions_details
;
TITL 1 in P2(1)2(1)2(1)
    1.res
    created by SHELXL-2018/1 at 11:57:59 on 08-Feb-2018
CELL 0.71073 10.8419 11.7415 31.5503 90 90 90
ZERR 4 0.0003 0.0004 0.0009 0 0 0
LATT -1
SYMM 0.5-X,-Y,0.5+Z
SYMM -X,0.5+Y,0.5-Z
SYMM 0.5+X,0.5-Y,-Z
SFAC C H Fe N O S
UNIT 72 120 12 120 12 24

L.S. 100
PLAN  5
SIZE 0.15 0.13 0.1
TEMP -123
BOND $H
HTAB
fmap 2
acta
OMIT 2 0 0
OMIT 0 0 2
OMIT 1 0 1
REM <olex2.extras>
REM <HklSrc "%.\\1.hkl">
REM </olex2.extras>

WGHT    0.037900    1.511400
FVAR       0.30095
FE1   3    0.196254    0.077295    0.120572    11.00000    0.02025    0.01653 =
         0.01702   -0.00091   -0.00115    0.00060
FE2   3    0.327698    0.114435    0.232795    11.00000    0.02598    0.02041 =
         0.01672   -0.00087   -0.00191   -0.00090
FE3   3    0.071532    0.062400    0.007008    11.00000    0.03190    0.02077 =
         0.01748   -0.00240   -0.00256    0.00219
N1    4    0.329469    0.192041    0.136826    11.00000    0.02777    0.02168 =
         0.01636   -0.00094   -0.00155    0.00274
N2    4    0.375146    0.212006    0.176821    11.00000    0.02292    0.02677 =
         0.01895   -0.00071   -0.00233   -0.00035
N3    4    0.439635    0.346830    0.135005    11.00000    0.02504    0.02347 =
         0.02273    0.00289    0.00148   -0.00070
N4    4    0.491612    0.451856    0.123159    11.00000    0.02911    0.02387 =
         0.03396    0.00474    0.00152   -0.00284
N5    4    0.093761    0.115651    0.172662    11.00000    0.02466    0.02209 =
         0.01654   -0.00188   -0.00115   -0.00130
N6    4    0.139490    0.135512    0.212780    11.00000    0.02389    0.02148 =
         0.01686   -0.00150    0.00083   -0.00167
N7    4   -0.059343    0.157198    0.213698    11.00000    0.02347    0.02325 =
         0.02963   -0.00225    0.00568    0.00102
N8    4   -0.177455    0.183483    0.229253    11.00000    0.02520    0.03699 =
         0.03649   -0.00097    0.00922    0.00335
N9    4    0.281337   -0.050241    0.152586    11.00000    0.02365    0.02119 =
         0.01631    0.00052   -0.00086   -0.00092
N10   4    0.328142   -0.039506    0.193166    11.00000    0.02511    0.02109 =
         0.01754   -0.00075   -0.00395    0.00052
N11   4    0.351163   -0.215278    0.172658    11.00000    0.02327    0.01740 =
         0.02358   -0.00065   -0.00057    0.00065
N12   4    0.387153   -0.331180    0.174245    11.00000    0.03211    0.01839 =
         0.03627   -0.00277   -0.00101    0.00129
N13   4    0.108722    0.205913    0.091314    11.00000    0.02673    0.02261 =
         0.02285   -0.00328   -0.00129   -0.00102
N14   4    0.065398    0.204925    0.051160    11.00000    0.03624    0.02293 =
         0.02397    0.00080   -0.00091    0.00627
N15   4    0.024466    0.369776    0.078236    11.00000    0.03733    0.02088 =
         0.02367   -0.00657   -0.00307    0.00434
N16   4   -0.020628    0.481591    0.081216    11.00000    0.05636    0.02028 =
         0.03081   -0.00256   -0.00253    0.01002
N17   4    0.061889   -0.033197    0.101776    11.00000    0.02777    0.02014 =
         0.01880   -0.00052   -0.00081    0.00306
N18   4    0.015856   -0.043208    0.060650    11.00000    0.02630    0.02428 =
         0.02501   -0.00068   -0.00239    0.00249
N19   4   -0.062323   -0.177994    0.098889    11.00000    0.02526    0.01930 =
         0.03960    0.00273    0.00110    0.00186
N20   4   -0.125438   -0.279943    0.108724    11.00000    0.03098    0.02386 =
         0.06197    0.00820    0.00294   -0.00845
N21   4    0.298419    0.037973    0.069519    11.00000    0.02182    0.02004 =
         0.03386   -0.00362   -0.00366    0.00077
N22   4    0.254344    0.025169    0.029127    11.00000    0.03124    0.02540 =
         0.02909    0.00497    0.00971    0.00288
N23   4    0.447625   -0.019284    0.029908    11.00000    0.02937    0.04231 =
         0.04134    0.01048    0.00852    0.00756
N24   4    0.565551   -0.047086    0.015236    11.00000    0.03151    0.09001 =
         0.03861    0.00994    0.01750    0.01860
AFIX  93
H24A  2    0.577504   -0.061189   -0.011848    11.00000   -1.20000
H24B  2    0.627809   -0.050478    0.033087    11.00000   -1.20000
AFIX   0
N25   4    0.278908    0.012755    0.284269    11.00000    0.06359    0.03491 =
         0.02520    0.00142   -0.00413   -0.00629
N26   4    0.331720    0.263772    0.270205    11.00000    0.03635    0.02629 =
         0.02508   -0.00330   -0.00304   -0.00007
N27   4    0.068738   -0.076010   -0.034585    11.00000    0.04034    0.02824 =
         0.02137   -0.00404   -0.00478    0.00519
N28   4    0.132578    0.180197   -0.039909    11.00000    0.05354    0.02899 =
         0.02176    0.00009   -0.00008   -0.00352

N29   4    0.270509    0.525924    0.073596    11.00000    0.03558    0.03741 =
         0.03352    0.00793    0.00221   -0.00069
N30   4    0.070968    0.630863    0.162441    11.00000    0.05549    0.03989 =
         0.03780    0.00254   -0.00667    0.00856
S1    6    0.221929   -0.134313    0.350691    11.00000    0.04084    0.04646 =
         0.03101    0.01287   -0.00203   -0.01207
S2    6    0.319102    0.450009    0.325477    11.00000    0.04450    0.02362 =
         0.02376   -0.00434    0.00187    0.00249
S3    6    0.227828    0.369697   -0.082196    11.00000    0.04965    0.03221 =
         0.03625    0.00290    0.00564   -0.00740
S4    6    0.072656   -0.252403   -0.093916    11.00000    0.03478    0.02968 =
         0.03137   -0.01179   -0.00085   -0.00062
S5    6    0.173000    0.444590    0.205486    11.00000    0.04896    0.03132 =
         0.03355   -0.00215   -0.00670    0.00779
S6    6    0.230273    0.737527    0.036301    11.00000    0.05363    0.03057 =
         0.03957   -0.00422   -0.01254    0.00585
C1    1    0.371477    0.273717    0.112227    11.00000    0.02891    0.02398 =
         0.02031   -0.00002   -0.00138    0.00375
AFIX  43
H1    2    0.355863    0.280010    0.082691    11.00000   -1.20000
AFIX   0
C2    1    0.438963    0.306610    0.174944    11.00000    0.02460    0.02676 =
         0.02263    0.00127   -0.00326   -0.00193
AFIX  43
H2    2    0.478916    0.341684    0.198349    11.00000   -1.20000
AFIX   0
C3    1   -0.024900    0.129033    0.174075    11.00000    0.02418    0.02594 =
         0.02213   -0.00323    0.00050   -0.00100
AFIX  43
H3    2   -0.079272    0.120284    0.150688    11.00000   -1.20000
AFIX   0
C4    1    0.045213    0.160608    0.236727    11.00000    0.03132    0.02408 =
         0.02283   -0.00334    0.00382   -0.00395
AFIX  43
H4    2    0.049648    0.178608    0.266044    11.00000   -1.20000
AFIX   0
C5    1    0.297489   -0.156301    0.140755    11.00000    0.02734    0.02628 =
         0.01775   -0.00280   -0.00307    0.00067
AFIX  43
H5    2    0.275018   -0.186922    0.113975    11.00000   -1.20000
AFIX   0
C6    1    0.368551   -0.140715    0.204141    11.00000    0.02896    0.02282 =
         0.02225   -0.00146   -0.00477    0.00149
AFIX  43
H6    2    0.405014   -0.158480    0.230711    11.00000   -1.20000
AFIX   0
C7    1    0.010529   -0.114730    0.123953    11.00000    0.02788    0.02040 =
         0.02514   -0.00072    0.00201    0.00191
AFIX  43
H7    2    0.022997   -0.127212    0.153393    11.00000   -1.20000
AFIX   0
C8    1   -0.056101   -0.132103    0.060064    11.00000    0.02900    0.02502 =
         0.03149    0.00145   -0.00218    0.00124
AFIX  43
H8    2   -0.097892   -0.160169    0.035746    11.00000   -1.20000
AFIX   0
C9    1    0.414781    0.009745    0.069379    11.00000    0.02947    0.02982 =
         0.03346    0.00036    0.00109    0.00000
AFIX  43
H9    2    0.467667    0.009773    0.093386    11.00000   -1.20000
AFIX   0
C10   1    0.345835   -0.011330    0.006182    11.00000    0.03797    0.04148 =
         0.02760    0.00478    0.00707    0.00222
AFIX  43
H10   2    0.341034   -0.029628   -0.023103    11.00000   -1.20000
AFIX   0
C11   1    0.084110    0.307285    0.107291    11.00000    0.02807    0.02712 =
         0.02381   -0.00519   -0.00152    0.00154
AFIX  43
H11   2    0.105321    0.332058    0.135013    11.00000   -1.20000
AFIX   0
C12   1    0.013796    0.303305    0.043680    11.00000    0.05455    0.02512 =
         0.02292   -0.00118   -0.00764    0.00549
AFIX  43
H12   2   -0.025160    0.324639    0.017904    11.00000   -1.20000
AFIX   0
C13   1    0.253275   -0.045677    0.312107    11.00000    0.03352    0.03306 =
         0.02395   -0.00082   -0.00498   -0.00140
C14   1    0.324930    0.340288    0.293503    11.00000    0.02654    0.02589 =
         0.01982    0.00364    0.00078    0.00110
C15   1    0.070274   -0.149475   -0.058751    11.00000    0.02452    0.02567 =
         0.02304    0.00225   -0.00179    0.00192
C16   1    0.172069    0.258061   -0.057715    11.00000    0.03616    0.02959 =
         0.01864   -0.00349   -0.00266    0.00105

C17   1    0.256144    0.613475    0.058849    11.00000    0.02348    0.04690 =
         0.03334   -0.01145   -0.00484    0.00564
C18   1    0.110978    0.552049    0.180164    11.00000    0.03321    0.04033 =
         0.02456   -0.00654    0.00202   -0.00058
O1    5    0.522096    0.095960    0.243996    11.00000    0.03608    0.06589 =
         0.03313   -0.02080   -0.01289    0.01771
O2    5   -0.119636    0.103819   -0.007078    11.00000    0.03508    0.03930 =
         0.02947   -0.00788   -0.00581    0.00920
O3    5    0.959156    0.382937    0.277584    11.00000    0.07442    0.06062 =
         0.05902   -0.00679    0.00054    0.01300
AFIX   3
H8A   2   -0.210264    0.119847    0.236634    11.00000   -1.20000
H8B   2   -0.216824    0.213097    0.208704    11.00000   -1.20000
H4A   2    0.567526    0.442347    0.115654    11.00000   -1.20000
H4B   2    0.441326    0.487457    0.107614    11.00000   -1.20000
H12A  2    0.451986   -0.339474    0.159094    11.00000   -1.20000
H12B  2    0.328476   -0.373593    0.169014    11.00000   -1.20000
H20A  2   -0.087684   -0.313963    0.131354    11.00000   -1.20000
H20B  2   -0.198724   -0.267514    0.117794    11.00000   -1.20000
H2A   2   -0.153524    0.060347   -0.024826    11.00000   -1.50000
H2B   2   -0.165254    0.106357    0.014744    11.00000   -1.50000
H1A   2    0.548586    0.093647    0.269234    11.00000   -1.50000
H1B   2    0.559056    0.046647    0.227964    11.00000   -1.50000
H16A  2    0.043566    0.527776    0.087534    11.00000   -1.20000
H16B  2   -0.064264    0.481637    0.105714    11.00000   -1.20000
H3A   2    0.905706    0.410547    0.267944    11.00000   -1.50000
H3B   2    1.028046    0.394297    0.262084    11.00000   -1.50000
AFIX   0
HKLF 4




REM  1 in P2(1)2(1)2(1)
REM R1 =  0.0322 for    8126 Fo > 4sig(Fo)  and  0.0406 for all    9202 data
REM    541 parameters refined using      0 restraints

END  
     
WGHT      0.0381      1.4890 

REM Instructions for potential hydrogen bonds
EQIV $1 x+1/2, -y+1/2, -z
HTAB N24 N16_$1
HTAB N24 S6_$1
HTAB N24 S3_$1
EQIV $2 x-1/2, -y+1/2, -z
HTAB C3 S3_$2
EQIV $3 -x, y-1/2, -z+1/2
HTAB C4 N30_$3
EQIV $4 x, y-1, z
HTAB C5 S6_$4
EQIV $5 -x+1, y-1/2, -z+1/2
HTAB C7 O3_$5
HTAB C10 N16_$1
HTAB C11 S5
HTAB N8 S5_$3
EQIV $6 -x, y+1/2, -z+1/2
HTAB N8 S1_$6
EQIV $7 -x+1, y+1/2, -z+1/2
HTAB N4 S1_$7
HTAB N4 N29
EQIV $8 x+1/2, -y-1/2, -z
HTAB N12 S4_$8
HTAB N12 S5_$4
HTAB N20 N30_$4
EQIV $9 x-1/2, -y-1/2, -z
HTAB N20 S4_$9
HTAB O2 N29_$2
HTAB O2 S3_$2
HTAB O1 N12_$7
HTAB O1 S2_$5
HTAB N16 N29
HTAB N16 N30
HTAB N16 S1_$6
EQIV $10 x+1, y, z
HTAB O3 S5_$10

REM Highest difference peak  0.495,  deepest hole -0.489,  1-sigma level  0.067
Q1    1   0.3022  0.0694  0.0447  11.00000  0.05    0.50
Q2    1   0.2038 -0.0628  0.3633  11.00000  0.05    0.44
Q3    1   0.5294 -0.1252  0.0060  11.00000  0.05    0.38
Q4    1   0.1733  0.3968 -0.0678  11.00000  0.05    0.36
Q5    1   0.3510  0.1756  0.1980  11.00000  0.05    0.31

  REM The information below was added by Olex2.
  REM
  REM R1 = 0.0322 for 8126 Fo > 4sig(Fo) and 0.0406 for all 65079 data
  REM n/a parameters refined using n/a restraints
  REM Highest difference peak 0.50, deepest hole -0.49
  REM Mean Shift 0, Max Shift 0.001.

  REM +++ Tabular Listing of Refinement Information +++
  REM R1_all = 0.0406
  REM R1_gt = 0.0322
  REM wR_ref = 0.0763
  REM GOOF = 1.029
  REM Shift_max = 0.001
  REM Shift_mean = 0
  REM Reflections_all = 65079
  REM Reflections_gt = 8126
  REM Parameters = n/a
  REM Hole = -0.49
  REM Peak = 0.50
  REM Flack = 0.015(6)

  
;
_cod_data_source_file            c8dt00318a2.cif
_cod_data_source_block           1
_cod_depositor_comments
'Adding full bibliography for 1548933--1548938.cif.'
_cod_database_code               1548933
_shelx_shelxl_version_number     2018/1
_shelx_space_group_comment
;
The symmetry employed for this shelxl refinement is uniquely defined
by the following loop, which should always be used as a source of
symmetry information in preference to the above space-group names.
They are only intended as comments.
;
_shelx_estimated_absorpt_t_max   0.868
_shelx_estimated_absorpt_t_min   0.812
_olex2_refinement_description
;
1. Fixed Uiso
 At 1.2 times of:
  All C(H) groups, All N(H,H) groups, All O(H,H,H,H,H,H,H,H,H,H) groups
 At 1.5 times of:
  All O(H,H,H,H,H,H) groups
2.a Riding coordinates:
 O3(H8A,H8B,H4A,H4B,H12A,H12B,H20A,H20B,H2A,H2B,H1A,H1B,H16A,H16B,H3A,H3B)
2.b Aromatic/amide H refined with riding coordinates:
 C1(H1), C2(H2), C3(H3), C4(H4), C5(H5), C6(H6), C7(H7), C8(H8), C9(H9),
 C10(H10), C11(H11), C12(H12)
2.c X=CH2 refined with riding coordinates:
 N24(H24A,H24B)
;
_olex2_submission_special_instructions 'No special instructions were received'
loop_
_space_group_symop_operation_xyz
'x, y, z'
'-x+1/2, -y, z+1/2'
'-x, y+1/2, -z+1/2'
'x+1/2, -y+1/2, -z'
loop_
_atom_site_label
_atom_site_type_symbol
_atom_site_fract_x
_atom_site_fract_y
_atom_site_fract_z
_atom_site_U_iso_or_equiv
_atom_site_adp_type
_atom_site_occupancy
_atom_site_site_symmetry_order
_atom_site_calc_flag
_atom_site_refinement_flags_posn
Fe1 Fe 0.19625(5) 0.07730(5) 0.12057(2) 0.01793(12) Uani 1 1 d .
Fe2 Fe 0.32770(5) 0.11443(5) 0.23279(2) 0.02104(13) Uani 1 1 d .
Fe3 Fe 0.07153(6) 0.06240(5) 0.00701(2) 0.02338(13) Uani 1 1 d .
N1 N 0.3295(3) 0.1920(3) 0.13683(10) 0.0219(7) Uani 1 1 d .
N2 N 0.3751(3) 0.2120(3) 0.17682(10) 0.0229(7) Uani 1 1 d .
N3 N 0.4396(3) 0.3468(3) 0.13501(10) 0.0237(7) Uani 1 1 d .
N4 N 0.4916(3) 0.4519(3) 0.12316(12) 0.0290(8) Uani 1 1 d .
N5 N 0.0938(3) 0.1157(3) 0.17266(10) 0.0211(7) Uani 1 1 d .
N6 N 0.1395(3) 0.1355(3) 0.21278(10) 0.0207(7) Uani 1 1 d .
N7 N -0.0593(3) 0.1572(3) 0.21370(11) 0.0254(7) Uani 1 1 d .
N8 N -0.1775(3) 0.1835(3) 0.22925(12) 0.0329(8) Uani 1 1 d .
N9 N 0.2813(3) -0.0502(3) 0.15259(10) 0.0204(7) Uani 1 1 d .
N10 N 0.3281(3) -0.0395(3) 0.19317(10) 0.0212(7) Uani 1 1 d .
N11 N 0.3512(3) -0.2153(3) 0.17266(11) 0.0214(7) Uani 1 1 d .
N12 N 0.3872(3) -0.3312(3) 0.17424(12) 0.0289(8) Uani 1 1 d .
N13 N 0.1087(3) 0.2059(3) 0.09131(11) 0.0241(7) Uani 1 1 d .
N14 N 0.0654(4) 0.2049(3) 0.05116(11) 0.0277(8) Uani 1 1 d .
N15 N 0.0245(3) 0.3698(3) 0.07824(11) 0.0273(8) Uani 1 1 d .
N16 N -0.0206(4) 0.4816(3) 0.08122(12) 0.0358(9) Uani 1 1 d .
N17 N 0.0619(3) -0.0332(3) 0.10178(10) 0.0222(7) Uani 1 1 d .
N18 N 0.0159(3) -0.0432(3) 0.06065(11) 0.0252(8) Uani 1 1 d .
N19 N -0.0623(3) -0.1780(3) 0.09889(12) 0.0281(8) Uani 1 1 d .
N20 N -0.1254(4) -0.2799(3) 0.10872(14) 0.0389(10) Uani 1 1 d .
N21 N 0.2984(3) 0.0380(3) 0.06952(11) 0.0252(8) Uani 1 1 d .
N22 N 0.2543(3) 0.0252(3) 0.02913(11) 0.0286(8) Uani 1 1 d .
N23 N 0.4476(4) -0.0193(4) 0.02991(13) 0.0377(10) Uani 1 1 d .
N24 N 0.5656(4) -0.0471(4) 0.01524(14) 0.0534(13) Uani 1 1 d .
H24A H 0.577504 -0.061189 -0.011848 0.064 Uiso 1 1 calc R
H24B H 0.627809 -0.050478 0.033087 0.064 Uiso 1 1 calc R
N25 N 0.2789(4) 0.0128(4) 0.28427(12) 0.0412(10) Uani 1 1 d .
N26 N 0.3317(3) 0.2638(3) 0.27021(11) 0.0292(8) Uani 1 1 d .
N27 N 0.0687(4) -0.0760(3) -0.03458(11) 0.0300(8) Uani 1 1 d .
N28 N 0.1326(4) 0.1802(3) -0.03991(12) 0.0348(9) Uani 1 1 d .
N29 N 0.2705(4) 0.5259(4) 0.07360(12) 0.0355(9) Uani 1 1 d .
N30 N 0.0710(4) 0.6309(4) 0.16244(13) 0.0444(10) Uani 1 1 d .
S1 S 0.22193(12) -0.13431(12) 0.35069(4) 0.0394(3) Uani 1 1 d .
S2 S 0.31910(12) 0.45001(9) 0.32548(3) 0.0306(2) Uani 1 1 d .
S3 S 0.22783(13) 0.36970(11) -0.08220(4) 0.0394(3) Uani 1 1 d .
S4 S 0.07266(11) -0.25240(10) -0.09392(4) 0.0319(2) Uani 1 1 d .
S5 S 0.17300(12) 0.44459(11) 0.20549(4) 0.0379(3) Uani 1 1 d .
S6 S 0.23027(13) 0.73753(11) 0.03630(4) 0.0413(3) Uani 1 1 d .
C1 C 0.3715(4) 0.2737(4) 0.11223(13) 0.0244(9) Uani 1 1 d .
H1 H 0.355863 0.280010 0.082691 0.029 Uiso 1 1 calc R
C2 C 0.4390(4) 0.3066(4) 0.17494(13) 0.0247(9) Uani 1 1 d .
H2 H 0.478916 0.341684 0.198349 0.030 Uiso 1 1 calc R
C3 C -0.0249(4) 0.1290(4) 0.17407(13) 0.0241(8) Uani 1 1 d .
H3 H -0.079272 0.120284 0.150688 0.029 Uiso 1 1 calc R
C4 C 0.0452(4) 0.1606(4) 0.23673(14) 0.0261(9) Uani 1 1 d .
H4 H 0.049648 0.178608 0.266044 0.031 Uiso 1 1 calc R
C5 C 0.2975(4) -0.1563(3) 0.14075(12) 0.0238(8) Uani 1 1 d .
H5 H 0.275018 -0.186922 0.113975 0.029 Uiso 1 1 calc R
C6 C 0.3686(4) -0.1407(4) 0.20414(13) 0.0247(9) Uani 1 1 d .
H6 H 0.405014 -0.158480 0.230711 0.030 Uiso 1 1 calc R
C7 C 0.0105(4) -0.1147(3) 0.12395(14) 0.0245(8) Uani 1 1 d .
H7 H 0.022997 -0.127212 0.153393 0.029 Uiso 1 1 calc R
C8 C -0.0561(4) -0.1321(4) 0.06006(14) 0.0285(9) Uani 1 1 d .
H8 H -0.097892 -0.160169 0.035746 0.034 Uiso 1 1 calc R
C9 C 0.4148(4) 0.0097(4) 0.06938(14) 0.0309(10) Uani 1 1 d .
H9 H 0.467667 0.009773 0.093386 0.037 Uiso 1 1 calc R
C10 C 0.3458(4) -0.0113(4) 0.00618(15) 0.0357(11) Uani 1 1 d .
H10 H 0.341034 -0.029628 -0.023103 0.043 Uiso 1 1 calc R
C11 C 0.0841(4) 0.3073(4) 0.10729(13) 0.0263(9) Uani 1 1 d .
H11 H 0.105321 0.332058 0.135013 0.032 Uiso 1 1 calc R
C12 C 0.0138(5) 0.3033(4) 0.04368(15) 0.0342(11) Uani 1 1 d .
H12 H -0.025160 0.324639 0.017904 0.041 Uiso 1 1 calc R
C13 C 0.2533(4) -0.0457(4) 0.31211(14) 0.0302(10) Uani 1 1 d .
C14 C 0.3249(4) 0.3403(3) 0.29350(12) 0.0241(8) Uani 1 1 d .
C15 C 0.0703(4) -0.1495(4) -0.05875(13) 0.0244(9) Uani 1 1 d .
C16 C 0.1721(4) 0.2581(4) -0.05771(12) 0.0281(9) Uani 1 1 d .
C17 C 0.2561(4) 0.6135(5) 0.05885(15) 0.0346(11) Uani 1 1 d .
C18 C 0.1110(4) 0.5520(4) 0.18016(14) 0.0327(10) Uani 1 1 d .
O1 O 0.5221(3) 0.0960(3) 0.24400(10) 0.0450(10) Uani 1 1 d .
O2 O -0.1196(3) 0.1038(3) -0.00708(10) 0.0346(7) Uani 1 1 d .
O3 O 0.9592(4) 0.3829(4) 0.27758(13) 0.0647(12) Uani 1 1 d .
H8A H -0.210264 0.119847 0.236634 0.078 Uiso 1 1 d R
H8B H -0.216824 0.213097 0.208704 0.078 Uiso 1 1 d R
H4A H 0.567526 0.442347 0.115654 0.078 Uiso 1 1 d R
H4B H 0.441326 0.487457 0.107614 0.078 Uiso 1 1 d R
H12A H 0.451986 -0.339474 0.159094 0.078 Uiso 1 1 d R
H12B H 0.328476 -0.373593 0.169014 0.078 Uiso 1 1 d R
H20A H -0.087684 -0.313963 0.131354 0.078 Uiso 1 1 d R
H20B H -0.198724 -0.267514 0.117794 0.078 Uiso 1 1 d R
H2A H -0.153524 0.060347 -0.024826 0.097 Uiso 1 1 d R
H2B H -0.165254 0.106357 0.014744 0.097 Uiso 1 1 d R
H1A H 0.548586 0.093647 0.269234 0.097 Uiso 1 1 d R
H1B H 0.559056 0.046647 0.227964 0.097 Uiso 1 1 d R
H16A H 0.043566 0.527776 0.087534 0.078 Uiso 1 1 d R
H16B H -0.064264 0.481637 0.105714 0.078 Uiso 1 1 d R
H3A H 0.905706 0.410547 0.267944 0.097 Uiso 1 1 d R
H3B H 1.028046 0.394297 0.262084 0.097 Uiso 1 1 d R
loop_
_atom_site_aniso_label
_atom_site_aniso_U_11
_atom_site_aniso_U_22
_atom_site_aniso_U_33
_atom_site_aniso_U_23
_atom_site_aniso_U_13
_atom_site_aniso_U_12
Fe1 0.0203(3) 0.0165(3) 0.0170(3) -0.0009(2) -0.0011(2) 0.0006(2)
Fe2 0.0260(3) 0.0204(3) 0.0167(3) -0.0009(2) -0.0019(2) -0.0009(2)
Fe3 0.0319(3) 0.0208(3) 0.0175(3) -0.0024(2) -0.0026(2) 0.0022(2)
N1 0.0278(19) 0.0217(17) 0.0164(16) -0.0009(13) -0.0015(13) 0.0027(14)
N2 0.0229(18) 0.0268(19) 0.0189(18) -0.0007(14) -0.0023(13) -0.0003(14)
N3 0.0250(18) 0.0235(18) 0.0227(17) 0.0029(14) 0.0015(14) -0.0007(14)
N4 0.0291(19) 0.0239(19) 0.034(2) 0.0047(16) 0.0015(15) -0.0028(14)
N5 0.0247(18) 0.0221(17) 0.0165(16) -0.0019(14) -0.0011(13) -0.0013(13)
N6 0.0239(18) 0.0215(18) 0.0169(16) -0.0015(14) 0.0008(13) -0.0017(13)
N7 0.0235(18) 0.0232(18) 0.0296(19) -0.0023(15) 0.0057(15) 0.0010(14)
N8 0.025(2) 0.037(2) 0.036(2) -0.0010(17) 0.0092(16) 0.0034(16)
N9 0.0237(17) 0.0212(18) 0.0163(15) 0.0005(13) -0.0009(12) -0.0009(13)
N10 0.0251(17) 0.0211(17) 0.0175(16) -0.0007(13) -0.0040(13) 0.0005(13)
N11 0.0233(18) 0.0174(17) 0.0236(17) -0.0006(14) -0.0006(13) 0.0006(12)
N12 0.032(2) 0.0184(18) 0.036(2) -0.0028(16) -0.0010(16) 0.0013(14)
N13 0.0267(19) 0.0226(18) 0.0228(18) -0.0033(14) -0.0013(14) -0.0010(14)
N14 0.036(2) 0.0229(18) 0.0240(18) 0.0008(15) -0.0009(16) 0.0063(16)
N15 0.037(2) 0.0209(18) 0.0237(18) -0.0066(15) -0.0031(15) 0.0043(15)
N16 0.056(3) 0.0203(19) 0.031(2) -0.0026(16) -0.0025(18) 0.0100(17)
N17 0.0278(18) 0.0201(17) 0.0188(16) -0.0005(13) -0.0008(13) 0.0031(14)
N18 0.0263(19) 0.0243(19) 0.0250(19) -0.0007(15) -0.0024(14) 0.0025(14)
N19 0.0253(19) 0.0193(18) 0.040(2) 0.0027(15) 0.0011(16) 0.0019(14)
N20 0.031(2) 0.024(2) 0.062(3) 0.0082(19) 0.0029(18) -0.0085(16)
N21 0.0218(19) 0.0200(18) 0.0339(19) -0.0036(14) -0.0037(14) 0.0008(14)
N22 0.031(2) 0.0254(19) 0.029(2) 0.0050(15) 0.0097(15) 0.0029(15)
N23 0.029(2) 0.042(2) 0.041(2) 0.0105(19) 0.0085(17) 0.0076(17)
N24 0.032(2) 0.090(4) 0.039(2) 0.010(2) 0.0175(19) 0.019(2)
N25 0.064(3) 0.035(2) 0.025(2) 0.0014(18) -0.0041(19) -0.006(2)
N26 0.036(2) 0.0263(19) 0.0251(18) -0.0033(16) -0.0030(16) -0.0001(16)
N27 0.040(2) 0.0282(19) 0.0214(18) -0.0040(16) -0.0048(15) 0.0052(17)
N28 0.054(3) 0.029(2) 0.022(2) 0.0001(16) -0.0001(17) -0.0035(18)
N29 0.036(2) 0.037(2) 0.034(2) 0.0079(19) 0.0022(17) -0.0007(17)
N30 0.055(3) 0.040(3) 0.038(2) 0.003(2) -0.007(2) 0.009(2)
S1 0.0408(7) 0.0465(8) 0.0310(6) 0.0129(5) -0.0020(5) -0.0121(5)
S2 0.0445(7) 0.0236(5) 0.0238(5) -0.0043(4) 0.0019(5) 0.0025(5)
S3 0.0497(8) 0.0322(7) 0.0363(7) 0.0029(5) 0.0056(5) -0.0074(5)
S4 0.0348(6) 0.0297(6) 0.0314(6) -0.0118(5) -0.0009(5) -0.0006(5)
S5 0.0490(7) 0.0313(6) 0.0336(6) -0.0022(5) -0.0067(5) 0.0078(6)
S6 0.0536(8) 0.0306(6) 0.0396(7) -0.0042(5) -0.0125(6) 0.0058(5)
C1 0.029(2) 0.024(2) 0.020(2) 0.0000(17) -0.0014(16) 0.0037(16)
C2 0.025(2) 0.027(2) 0.023(2) 0.0013(17) -0.0033(17) -0.0019(17)
C3 0.024(2) 0.026(2) 0.022(2) -0.0032(18) 0.0005(15) -0.0010(16)
C4 0.031(2) 0.024(2) 0.023(2) -0.0033(17) 0.0038(17) -0.0040(17)
C5 0.027(2) 0.026(2) 0.0177(19) -0.0028(16) -0.0031(16) 0.0007(17)
C6 0.029(2) 0.023(2) 0.022(2) -0.0015(17) -0.0048(16) 0.0015(16)
C7 0.028(2) 0.020(2) 0.025(2) -0.0007(18) 0.0020(16) 0.0019(16)
C8 0.029(2) 0.025(2) 0.031(2) 0.0015(19) -0.0022(18) 0.0012(18)
C9 0.029(3) 0.030(2) 0.033(2) 0.0004(19) 0.0011(18) 0.0000(19)
C10 0.038(3) 0.041(3) 0.028(2) 0.005(2) 0.007(2) 0.002(2)
C11 0.028(2) 0.027(2) 0.024(2) -0.0052(17) -0.0015(17) 0.0015(17)
C12 0.055(3) 0.025(2) 0.023(2) -0.0012(19) -0.008(2) 0.005(2)
C13 0.034(2) 0.033(3) 0.024(2) -0.0008(19) -0.0050(17) -0.0014(19)
C14 0.027(2) 0.026(2) 0.020(2) 0.0036(17) 0.0008(16) 0.0011(17)
C15 0.025(2) 0.026(2) 0.023(2) 0.0022(18) -0.0018(16) 0.0019(17)
C16 0.036(2) 0.030(2) 0.019(2) -0.0035(18) -0.0027(17) 0.001(2)
C17 0.023(2) 0.047(3) 0.033(3) -0.011(2) -0.0048(18) 0.006(2)
C18 0.033(2) 0.040(3) 0.025(2) -0.007(2) 0.0020(17) -0.001(2)
O1 0.0361(19) 0.066(3) 0.0331(18) -0.0208(17) -0.0129(14) 0.0177(17)
O2 0.0351(17) 0.0393(19) 0.0295(16) -0.0079(14) -0.0058(13) 0.0092(14)
O3 0.074(3) 0.061(3) 0.059(3) -0.007(2) 0.001(2) 0.013(2)
loop_
_atom_type_symbol
_atom_type_description
_atom_type_scat_dispersion_real
_atom_type_scat_dispersion_imag
_atom_type_scat_source
C C 0.0033 0.0016 'International Tables Vol C Tables 4.2.6.8 and 6.1.1.4'
H H 0.0000 0.0000 'International Tables Vol C Tables 4.2.6.8 and 6.1.1.4'
Fe Fe 0.3463 0.8444 'International Tables Vol C Tables 4.2.6.8 and 6.1.1.4'
N N 0.0061 0.0033 'International Tables Vol C Tables 4.2.6.8 and 6.1.1.4'
O O 0.0106 0.0060 'International Tables Vol C Tables 4.2.6.8 and 6.1.1.4'
S S 0.1246 0.1234 'International Tables Vol C Tables 4.2.6.8 and 6.1.1.4'
loop_
_geom_angle_atom_site_label_1
_geom_angle_atom_site_label_2
_geom_angle_atom_site_label_3
_geom_angle
N5 Fe1 N1 92.15(13)
N5 Fe1 N17 89.17(13)
N9 Fe1 N1 92.32(13)
N9 Fe1 N5 90.55(13)
N9 Fe1 N17 90.00(13)
N13 Fe1 N1 87.33(14)
N13 Fe1 N5 86.95(14)
N13 Fe1 N9 177.46(14)
N13 Fe1 N17 90.41(13)
N13 Fe1 N21 93.72(14)
N17 Fe1 N1 177.32(13)
N21 Fe1 N1 87.88(13)
N21 Fe1 N5 179.34(14)
N21 Fe1 N9 88.79(13)
N21 Fe1 N17 90.83(13)
N2 Fe2 N10 88.32(12)
N6 Fe2 N2 85.71(12)
N6 Fe2 N10 85.97(12)
N25 Fe2 N2 176.61(15)
N25 Fe2 N6 93.09(15)
N25 Fe2 N10 88.44(14)
N25 Fe2 N26 92.60(15)
N25 Fe2 O1 93.61(17)
N26 Fe2 N2 90.67(13)
N26 Fe2 N6 95.05(13)
N26 Fe2 N10 178.50(15)
N26 Fe2 O1 88.38(14)
O1 Fe2 N2 87.39(14)
O1 Fe2 N6 172.33(13)
O1 Fe2 N10 90.48(13)
N14 Fe3 N18 86.11(13)
N22 Fe3 N14 88.67(14)
N22 Fe3 N18 83.55(13)
N22 Fe3 O2 172.78(13)
N27 Fe3 N14 177.28(16)
N27 Fe3 N18 92.36(14)
N27 Fe3 N22 93.39(15)
N27 Fe3 N28 94.19(14)
N27 Fe3 O2 91.82(13)
N28 Fe3 N14 87.43(14)
N28 Fe3 N18 173.16(14)
N28 Fe3 N22 94.08(15)
N28 Fe3 O2 90.51(15)
O2 Fe3 N14 85.97(13)
O2 Fe3 N18 91.26(13)
N2 N1 Fe1 126.7(3)
C1 N1 Fe1 125.3(3)
C1 N1 N2 107.0(3)
N1 N2 Fe2 124.9(3)
C2 N2 Fe2 127.6(3)
C2 N2 N1 107.0(3)
C1 N3 N4 129.8(3)
C1 N3 C2 105.9(3)
C2 N3 N4 124.0(4)
N3 N4 H4A 110.0
N3 N4 H4B 109.3
H4A N4 H4B 121.3
N6 N5 Fe1 125.6(2)
C3 N5 Fe1 126.6(3)
C3 N5 N6 107.7(3)
N5 N6 Fe2 126.2(2)
C4 N6 Fe2 126.8(3)
C4 N6 N5 106.7(3)
C3 N7 N8 129.1(4)
C3 N7 C4 106.0(3)
C4 N7 N8 124.9(4)
N7 N8 H8A 106.3
N7 N8 H8B 106.3
H8A N8 H8B 110.7
N10 N9 Fe1 124.1(2)
C5 N9 Fe1 128.3(3)
C5 N9 N10 107.5(3)
N9 N10 Fe2 126.9(2)
C6 N10 Fe2 126.5(3)
C6 N10 N9 106.5(3)
C5 N11 N12 129.5(3)
C6 N11 N12 124.3(3)
C6 N11 C5 106.1(3)
N11 N12 H12A 108.4
N11 N12 H12B 111.1
H12A N12 H12B 117.0
N14 N13 Fe1 126.1(3)
C11 N13 Fe1 126.7(3)
C11 N13 N14 107.2(3)
N13 N14 Fe3 126.6(3)
C12 N14 Fe3 125.3(3)
C12 N14 N13 108.1(4)
C11 N15 N16 129.3(4)
C11 N15 C12 106.1(4)
C12 N15 N16 124.5(4)
N15 N16 H16A 107.9
N15 N16 H16B 103.9
H16A N16 H16B 102.3
N18 N17 Fe1 125.4(3)
C7 N17 Fe1 127.8(3)
C7 N17 N18 106.4(3)
N17 N18 Fe3 125.0(3)
C8 N18 Fe3 127.5(3)
C8 N18 N17 107.1(3)
C7 N19 N20 128.6(4)
C8 N19 N20 124.5(4)
C8 N19 C7 106.6(4)
N19 N20 H20A 108.9
N19 N20 H20B 112.2
H20A N20 H20B 103.2
N22 N21 Fe1 125.4(3)
C9 N21 Fe1 126.5(3)
C9 N21 N22 107.8(4)
N21 N22 Fe3 127.1(3)
C10 N22 Fe3 126.2(3)
C10 N22 N21 106.7(4)
C9 N23 N24 127.6(4)
C10 N23 N24 125.9(4)
C10 N23 C9 106.5(4)
N23 N24 H24A 120.0
N23 N24 H24B 120.0
H24A N24 H24B 120.0
C13 N25 Fe2 178.2(4)
C14 N26 Fe2 172.8(4)
C15 N27 Fe3 177.0(4)
C16 N28 Fe3 165.1(4)
N1 C1 N3 110.0(4)
N1 C1 H1 125.0
N3 C1 H1 125.0
N2 C2 N3 110.0(4)
N2 C2 H2 125.0
N3 C2 H2 125.0
N5 C3 N7 109.7(4)
N5 C3 H3 125.2
N7 C3 H3 125.2
N6 C4 N7 109.9(4)
N6 C4 H4 125.1
N7 C4 H4 125.1
N9 C5 N11 109.4(3)
N9 C5 H5 125.3
N11 C5 H5 125.3
N10 C6 N11 110.5(3)
N10 C6 H6 124.8
N11 C6 H6 124.8
N17 C7 N19 109.9(4)
N17 C7 H7 125.1
N19 C7 H7 125.1
N18 C8 N19 109.8(4)
N18 C8 H8 125.1
N19 C8 H8 125.1
N21 C9 N23 109.0(4)
N21 C9 H9 125.5
N23 C9 H9 125.5
N22 C10 N23 109.9(4)
N22 C10 H10 125.0
N23 C10 H10 125.0
N13 C11 N15 109.3(4)
N13 C11 H11 125.4
N15 C11 H11 125.4
N14 C12 N15 109.3(4)
N14 C12 H12 125.4
N15 C12 H12 125.4
N25 C13 S1 176.8(5)
N26 C14 S2 178.1(4)
N27 C15 S4 178.9(4)
N28 C16 S3 179.0(4)
N29 C17 S6 177.4(5)
N30 C18 S5 177.4(5)
Fe2 O1 H1A 119.4
Fe2 O1 H1B 115.1
H1A O1 H1B 111.7
Fe3 O2 H2A 114.6
Fe3 O2 H2B 113.4
H2A O2 H2B 107.9
H3A O3 H3B 111.4
loop_
_geom_bond_atom_site_label_1
_geom_bond_atom_site_label_2
_geom_bond_distance
Fe1 N1 2.041(4)
Fe1 N5 2.034(3)
Fe1 N9 2.028(3)
Fe1 N13 2.008(4)
Fe1 N17 2.039(4)
Fe1 N21 2.009(4)
Fe2 N2 2.167(3)
Fe2 N6 2.150(3)
Fe2 N10 2.198(3)
Fe2 N25 2.084(4)
Fe2 N26 2.114(4)
Fe2 O1 2.148(3)
Fe3 N14 2.178(4)
Fe3 N18 2.183(4)
Fe3 N22 2.146(4)
Fe3 N27 2.089(4)
Fe3 N28 2.131(4)
Fe3 O2 2.175(3)
N1 N2 1.376(4)
N1 C1 1.315(5)
N2 C2 1.310(5)
N3 N4 1.406(5)
N3 C1 1.341(5)
N3 C2 1.346(5)
N4 H4A 0.8637
N4 H4B 0.8441
N5 N6 1.379(4)
N5 C3 1.297(5)
N6 C4 1.305(5)
N7 N8 1.406(5)
N7 C3 1.346(5)
N7 C4 1.347(6)
N8 H8A 0.8597
N8 H8B 0.8506
N9 N10 1.383(4)
N9 C5 1.312(5)
N10 C6 1.313(5)
N11 N12 1.417(5)
N11 C5 1.353(5)
N11 C6 1.337(5)
N12 H12A 0.8556
N12 H12B 0.8246
N13 N14 1.351(5)
N13 C11 1.320(5)
N14 C12 1.305(6)
N15 N16 1.404(5)
N15 C11 1.340(5)
N15 C12 1.346(6)
N16 H16A 0.9045
N16 H16B 0.9062
N17 N18 1.395(5)
N17 C7 1.310(5)
N18 C8 1.303(5)
N19 N20 1.413(5)
N19 C7 1.342(5)
N19 C8 1.340(6)
N20 H20A 0.9148
N20 H20B 0.8570
N21 N22 1.369(5)
N21 C9 1.304(6)
N22 C10 1.301(6)
N23 N24 1.398(5)
N23 C9 1.339(6)
N23 C10 1.337(6)
N24 H24A 0.8800
N24 H24B 0.8800
N25 C13 1.149(6)
N26 C14 1.163(5)
N27 C15 1.151(5)
N28 C16 1.155(6)
N29 C17 1.139(6)
N30 C18 1.165(6)
S1 C13 1.637(5)
S2 C14 1.637(4)
S3 C16 1.637(5)
S4 C15 1.641(4)
S5 C18 1.638(5)
S6 C17 1.645(6)
C1 H1 0.9500
C2 H2 0.9500
C3 H3 0.9500
C4 H4 0.9500
C5 H5 0.9500
C6 H6 0.9500
C7 H7 0.9500
C8 H8 0.9500
C9 H9 0.9500
C10 H10 0.9500
C11 H11 0.9500
C12 H12 0.9500
O1 H1A 0.8469
O1 H1B 0.8670
O2 H2A 0.8421
O2 H2B 0.8482
O3 H3A 0.7304
O3 H3B 0.9027
