#------------------------------------------------------------------------------
#$Date: 2016-02-18 17:37:37 +0200 (Thu, 18 Feb 2016) $
#$Revision: 176729 $
#$URL: svn://www.crystallography.net/cod/cif/1/50/17/1501713.cif $
#------------------------------------------------------------------------------
#
# This file is available in the Crystallography Open Database (COD),
# http://www.crystallography.net/
#
# All data on this site have been placed in the public domain by the
# contributors.
#
data_1501713
loop_
_publ_author_name
'Lethesh, Kallidanthiyil Chellappan'
'Van Hecke, Kristof'
'Van Meervelt, Luc'
'Nockemann, Peter'
'Kirchner, Barbara'
'Zahn, Stefan'
'Parac-Vogt, Tatjana N'
'Dehaen, Wim'
'Binnemans, Koen'
_publ_section_title
;
 Nitrile-functionalized pyridinium, pyrrolidinium, and piperidinium ionic
 liquids.
;
_journal_issue                   26
_journal_name_full               'The journal of physical chemistry. B'
_journal_page_first              8424
_journal_page_last               8438
_journal_paper_doi               10.1021/jp2027675
_journal_volume                  115
_journal_year                    2011
_chemical_formula_moiety         'C10 H13 N2, C2 F6 N O4 S2'
_chemical_formula_sum            'C12 H13 F6 N3 O4 S2'
_chemical_formula_weight         441.39
_chemical_name_systematic
; 
 ? 
;
_space_group_IT_number           14
_symmetry_cell_setting           monoclinic
_symmetry_space_group_name_Hall  '-P 2yn'
_symmetry_space_group_name_H-M   'P 1 21/n 1'
_atom_sites_solution_hydrogens   geom
_atom_sites_solution_primary     direct
_atom_sites_solution_secondary   difmap
_audit_creation_method           SHELXL-97
_cell_angle_alpha                90.00
_cell_angle_beta                 96.726(2)
_cell_angle_gamma                90.00
_cell_formula_units_Z            4
_cell_length_a                   11.5159(6)
_cell_length_b                   12.2778(6)
_cell_length_c                   12.5068(6)
_cell_measurement_temperature    100(2)
_cell_volume                     1756.17(15)
_computing_cell_refinement       'Bruker SAINT'
_computing_data_collection       'Bruker SMART'
_computing_data_reduction        'Bruker SAINT'
_computing_publication_material  Platon
_computing_structure_refinement  'SHELXL-97 (Sheldrick, 1997)'
_computing_structure_solution    'SHELXS-97 (Sheldrick, 1990)'
_diffrn_ambient_temperature      100(2)
_diffrn_measured_fraction_theta_full 0.983
_diffrn_measured_fraction_theta_max 0.983
_diffrn_measurement_device_type  'SMART 6000'
_diffrn_measurement_method       '\w and \f scans'
_diffrn_radiation_monochromator  'crossed G\"obel mirrors'
_diffrn_radiation_source         'fine-focus sealed tube'
_diffrn_radiation_type           CuK\a
_diffrn_radiation_wavelength     1.54178
_diffrn_reflns_av_R_equivalents  0.0437
_diffrn_reflns_av_sigmaI/netI    0.0287
_diffrn_reflns_limit_h_max       13
_diffrn_reflns_limit_h_min       -13
_diffrn_reflns_limit_k_max       14
_diffrn_reflns_limit_k_min       -13
_diffrn_reflns_limit_l_max       15
_diffrn_reflns_limit_l_min       -15
_diffrn_reflns_number            17312
_diffrn_reflns_theta_full        71.28
_diffrn_reflns_theta_max         71.28
_diffrn_reflns_theta_min         4.94
_exptl_absorpt_coefficient_mu    3.587
_exptl_absorpt_correction_T_max  0.488
_exptl_absorpt_correction_T_min  0.301
_exptl_absorpt_correction_type   multi-scan
_exptl_absorpt_process_details   'Bruker SADABS'
_exptl_crystal_colour            colourless
_exptl_crystal_density_diffrn    1.669
_exptl_crystal_density_method    'not measured'
_exptl_crystal_description       block
_exptl_crystal_F_000             896
_exptl_crystal_size_max          0.4
_exptl_crystal_size_mid          0.35
_exptl_crystal_size_min          0.2
_refine_diff_density_max         0.449
_refine_diff_density_min         -0.420
_refine_diff_density_rms         0.074
_refine_ls_extinction_method     none
_refine_ls_goodness_of_fit_ref   1.092
_refine_ls_hydrogen_treatment    refxyz
_refine_ls_matrix_type           full
_refine_ls_number_parameters     253
_refine_ls_number_reflns         3352
_refine_ls_number_restraints     0
_refine_ls_restrained_S_all      1.092
_refine_ls_R_factor_all          0.0311
_refine_ls_R_factor_gt           0.0300
_refine_ls_shift/su_max          0.001
_refine_ls_shift/su_mean         0.000
_refine_ls_structure_factor_coef Fsqd
_refine_ls_weighting_details
'calc w=1/[\s^2^(Fo^2^)+(0.0357P)^2^+0.8987P] where P=(Fo^2^+2Fc^2^)/3'
_refine_ls_weighting_scheme      calc
_refine_ls_wR_factor_gt          0.0755
_refine_ls_wR_factor_ref         0.0764
_reflns_number_gt                3231
_reflns_number_total             3352
_reflns_threshold_expression     >2sigma(I)
_cod_data_source_file            jp2027675_si_005.cif
_cod_data_source_block           wg215
_cod_original_sg_symbol_H-M      'P 21/n'
_cod_database_code               1501713
loop_
_symmetry_equiv_pos_as_xyz
'x, y, z'
'-x+1/2, y+1/2, -z+1/2'
'-x, -y, -z'
'x-1/2, -y-1/2, z-1/2'
loop_
_atom_site_label
_atom_site_type_symbol
_atom_site_fract_x
_atom_site_fract_y
_atom_site_fract_z
_atom_site_U_iso_or_equiv
_atom_site_adp_type
_atom_site_occupancy
_atom_site_symmetry_multiplicity
_atom_site_calc_flag
_atom_site_refinement_flags
C1 C 1.11845(13) 0.57510(13) 0.17905(12) 0.0174(3) Uani 1 1 d .
H1 H 1.1456(6) 0.6209(10) 0.1264(11) 0.021 Uiso 1 1 calc R
C2 C 1.17923(13) 0.48195(13) 0.21169(12) 0.0204(3) Uani 1 1 d .
H2 H 1.2484(16) 0.4631(4) 0.1813(7) 0.025 Uiso 1 1 calc R
C3 C 1.13885(13) 0.41589(12) 0.28916(12) 0.0185(3) Uani 1 1 d .
H3 H 1.1800(9) 0.3531(14) 0.3121(5) 0.022 Uiso 1 1 calc R
C4 C 1.03680(13) 0.44304(12) 0.33295(11) 0.0158(3) Uani 1 1 d .
C5 C 0.97942(12) 0.53740(12) 0.29680(11) 0.0142(3) Uani 1 1 d .
H5 H 0.9118(15) 0.5571(4) 0.3244(6) 0.017 Uiso 1 1 calc R
C6 C 0.98829(14) 0.37330(13) 0.41609(12) 0.0205(3) Uani 1 1 d .
H6A H 0.9607(10) 0.3040(9) 0.3833(5) 0.031 Uiso 1 1 calc R
H6B H 0.9229(10) 0.4113(6) 0.4435(8) 0.031 Uiso 1 1 calc R
H6C H 1.0497(8) 0.3591(9) 0.4757(9) 0.031 Uiso 1 1 calc R
C7 C 0.95682(12) 0.70158(11) 0.18550(11) 0.0148(3) Uani 1 1 d .
H7A H 1.0111(8) 0.7586(8) 0.17870(14) 0.018 Uiso 1 1 calc R
H7B H 0.9072(7) 0.7231(3) 0.2372(7) 0.018 Uiso 1 1 calc R
C8 C 0.88440(13) 0.68205(12) 0.07777(12) 0.0171(3) Uani 1 1 d .
H8A H 0.8274(8) 0.6263(8) 0.08507(15) 0.020 Uiso 1 1 calc R
H8B H 0.9341(7) 0.6580(4) 0.0260(7) 0.020 Uiso 1 1 calc R
C9 C 0.82279(13) 0.78794(12) 0.03913(12) 0.0179(3) Uani 1 1 d .
H9A H 0.7787(7) 0.8135(4) 0.0919(8) 0.021 Uiso 1 1 calc R
H9B H 0.8786(8) 0.8407(8) 0.02833(19) 0.021 Uiso 1 1 calc R
C10 C 0.74629(13) 0.77043(12) -0.06128(13) 0.0199(3) Uani 1 1 d .
C11 C 0.64604(13) 0.39550(12) 0.03666(12) 0.0186(3) Uani 1 1 d .
C12 C 0.95478(13) 0.10888(13) 0.16310(13) 0.0201(3) Uani 1 1 d .
N1 N 1.02048(10) 0.60080(10) 0.22227(9) 0.0134(2) Uani 1 1 d .
N2 N 0.68760(13) 0.75249(12) -0.13971(12) 0.0291(3) Uani 1 1 d .
N3 N 0.75914(11) 0.22663(10) 0.13158(10) 0.0175(3) Uani 1 1 d .
O1 O 0.75320(10) 0.39793(9) 0.23020(9) 0.0213(2) Uani 1 1 d .
O2 O 0.87249(9) 0.39480(8) 0.07896(8) 0.0175(2) Uani 1 1 d .
O3 O 0.76031(9) 0.04383(9) 0.05488(9) 0.0208(2) Uani 1 1 d .
O4 O 0.87540(9) 0.18432(9) -0.02600(8) 0.0196(2) Uani 1 1 d .
F1 F 0.65122(9) 0.35446(8) -0.06158(7) 0.0265(2) Uani 1 1 d .
F2 F 0.54839(8) 0.36136(8) 0.07188(8) 0.0265(2) Uani 1 1 d .
F3 F 0.64282(8) 0.50341(8) 0.02857(9) 0.0295(2) Uani 1 1 d .
F4 F 1.01590(9) 0.02979(9) 0.12355(9) 0.0360(3) Uani 1 1 d .
F5 F 1.02397(8) 0.19536(8) 0.18054(8) 0.0271(2) Uani 1 1 d .
F6 F 0.92340(9) 0.07701(9) 0.25626(8) 0.0329(2) Uani 1 1 d .
S1 S 0.77493(3) 0.35436(3) 0.12845(3) 0.01328(10) Uani 1 1 d .
S2 S 0.82703(3) 0.14231(3) 0.06606(3) 0.01387(10) Uani 1 1 d .
loop_
_atom_site_aniso_label
_atom_site_aniso_U_11
_atom_site_aniso_U_22
_atom_site_aniso_U_33
_atom_site_aniso_U_23
_atom_site_aniso_U_13
_atom_site_aniso_U_12
C1 0.0170(7) 0.0215(7) 0.0141(7) 0.0007(6) 0.0033(5) 0.0002(6)
C2 0.0161(7) 0.0261(8) 0.0195(7) -0.0005(6) 0.0037(6) 0.0046(6)
C3 0.0179(7) 0.0187(7) 0.0179(7) 0.0003(6) -0.0021(6) 0.0040(6)
C4 0.0155(7) 0.0178(7) 0.0129(6) -0.0004(5) -0.0032(5) -0.0013(5)
C5 0.0119(7) 0.0185(7) 0.0120(6) -0.0026(5) -0.0003(5) -0.0011(5)
C6 0.0196(8) 0.0212(7) 0.0202(7) 0.0056(6) 0.0001(6) 0.0000(6)
C7 0.0159(7) 0.0132(7) 0.0152(7) -0.0004(5) 0.0015(5) 0.0019(5)
C8 0.0173(7) 0.0134(7) 0.0193(7) -0.0002(5) -0.0035(6) 0.0014(5)
C9 0.0187(7) 0.0162(7) 0.0185(7) 0.0010(6) 0.0009(6) 0.0041(5)
C10 0.0175(7) 0.0179(7) 0.0243(8) 0.0046(6) 0.0022(6) 0.0065(6)
C11 0.0164(7) 0.0176(7) 0.0211(7) 0.0025(6) -0.0005(6) -0.0005(5)
C12 0.0163(7) 0.0180(8) 0.0256(8) 0.0015(6) 0.0000(6) 0.0004(6)
N1 0.0135(6) 0.0148(6) 0.0112(5) -0.0011(4) -0.0014(4) 0.0002(4)
N2 0.0267(7) 0.0301(8) 0.0280(8) 0.0034(6) -0.0072(6) 0.0067(6)
N3 0.0170(6) 0.0152(6) 0.0215(6) 0.0024(5) 0.0072(5) 0.0010(5)
O1 0.0234(6) 0.0237(6) 0.0170(5) -0.0038(4) 0.0029(4) 0.0023(4)
O2 0.0160(5) 0.0160(5) 0.0207(5) 0.0001(4) 0.0027(4) -0.0028(4)
O3 0.0191(5) 0.0151(5) 0.0274(6) 0.0000(4) -0.0007(4) -0.0030(4)
O4 0.0229(5) 0.0183(5) 0.0185(5) -0.0003(4) 0.0064(4) -0.0001(4)
F1 0.0260(5) 0.0343(6) 0.0174(5) -0.0001(4) -0.0044(4) -0.0043(4)
F2 0.0134(4) 0.0309(5) 0.0351(5) 0.0051(4) 0.0026(4) 0.0003(3)
F3 0.0270(5) 0.0170(5) 0.0420(6) 0.0068(4) -0.0068(4) 0.0028(4)
F4 0.0275(5) 0.0304(6) 0.0481(7) -0.0066(5) -0.0042(5) 0.0150(4)
F5 0.0192(5) 0.0273(5) 0.0332(5) 0.0004(4) -0.0039(4) -0.0070(4)
F6 0.0301(5) 0.0397(6) 0.0271(5) 0.0154(4) -0.0033(4) -0.0046(4)
S1 0.01292(18) 0.01338(19) 0.01345(18) -0.00011(11) 0.00115(13) 0.00057(11)
S2 0.01304(18) 0.01210(18) 0.01653(18) 0.00066(12) 0.00194(13) -0.00009(11)
loop_
_atom_type_symbol
_atom_type_description
_atom_type_scat_dispersion_real
_atom_type_scat_dispersion_imag
_atom_type_scat_source
C C 0.0181 0.0091 'International Tables Vol C Tables 4.2.6.8 and 6.1.1.4'
H H 0.0000 0.0000 'International Tables Vol C Tables 4.2.6.8 and 6.1.1.4'
N N 0.0311 0.0180 'International Tables Vol C Tables 4.2.6.8 and 6.1.1.4'
O O 0.0492 0.0322 'International Tables Vol C Tables 4.2.6.8 and 6.1.1.4'
F F 0.0727 0.0534 'International Tables Vol C Tables 4.2.6.8 and 6.1.1.4'
S S 0.3331 0.5567 'International Tables Vol C Tables 4.2.6.8 and 6.1.1.4'
loop_
_geom_angle_atom_site_label_1
_geom_angle_atom_site_label_2
_geom_angle_atom_site_label_3
_geom_angle
N1 C1 C2 119.79(14)
N1 C1 H1 120.1
C2 C1 H1 120.1
C1 C2 C3 119.53(14)
C1 C2 H2 120.2
C3 C2 H2 120.2
C2 C3 C4 120.16(14)
C2 C3 H3 119.9
C4 C3 H3 119.9
C5 C4 C3 117.67(14)
C5 C4 C6 120.06(13)
C3 C4 C6 122.27(14)
N1 C5 C4 121.27(13)
N1 C5 H5 119.4
C4 C5 H5 119.4
C4 C6 H6A 109.5
C4 C6 H6B 109.5
H6A C6 H6B 109.5
C4 C6 H6C 109.5
H6A C6 H6C 109.5
H6B C6 H6C 109.5
N1 C7 C8 110.09(11)
N1 C7 H7A 109.6
C8 C7 H7A 109.6
N1 C7 H7B 109.6
C8 C7 H7B 109.6
H7A C7 H7B 108.2
C7 C8 C9 109.38(12)
C7 C8 H8A 109.8
C9 C8 H8A 109.8
C7 C8 H8B 109.8
C9 C8 H8B 109.8
H8A C8 H8B 108.2
C10 C9 C8 110.87(12)
C10 C9 H9A 109.5
C8 C9 H9A 109.5
C10 C9 H9B 109.5
C8 C9 H9B 109.5
H9A C9 H9B 108.1
N2 C10 C9 177.31(16)
F2 C11 F3 108.91(13)
F2 C11 F1 108.54(12)
F3 C11 F1 108.06(12)
F2 C11 S1 111.15(10)
F3 C11 S1 109.56(10)
F1 C11 S1 110.55(10)
F6 C12 F4 108.90(13)
F6 C12 F5 108.23(13)
F4 C12 F5 108.13(13)
F6 C12 S2 111.60(10)
F4 C12 S2 109.57(11)
F5 C12 S2 110.33(11)
C5 N1 C1 121.58(13)
C5 N1 C7 119.83(12)
C1 N1 C7 118.59(12)
S1 N3 S2 124.85(8)
O1 S1 O2 118.86(6)
O1 S1 N3 108.47(7)
O2 S1 N3 116.92(6)
O1 S1 C11 103.92(7)
O2 S1 C11 104.57(7)
N3 S1 C11 101.62(7)
O3 S2 O4 118.73(7)
O3 S2 N3 108.14(7)
O4 S2 N3 116.28(6)
O3 S2 C12 104.76(7)
O4 S2 C12 104.73(7)
N3 S2 C12 102.10(7)
loop_
_geom_bond_atom_site_label_1
_geom_bond_atom_site_label_2
_geom_bond_distance
C1 N1 1.3445(19)
C1 C2 1.378(2)
C1 H1 0.9463
C2 C3 1.385(2)
C2 H2 0.9505
C3 C4 1.394(2)
C3 H3 0.9328
C4 C5 1.383(2)
C4 C6 1.504(2)
C5 N1 1.3421(19)
C5 H5 0.9199
C6 H6A 0.9812
C6 H6B 0.9812
C6 H6C 0.9812
C7 N1 1.4836(18)
C7 C8 1.5182(19)
C7 H7A 0.9494
C7 H7B 0.9494
C8 C9 1.5320(19)
C8 H8A 0.9598
C8 H8B 0.9598
C9 C10 1.463(2)
C9 H9A 0.9328
C9 H9B 0.9328
C10 N2 1.146(2)
C11 F2 1.3230(18)
C11 F3 1.3289(18)
C11 F1 1.3358(18)
C11 S1 1.8377(15)
C12 F6 1.3191(19)
C12 F4 1.3285(19)
C12 F5 1.3300(18)
C12 S2 1.8405(15)
N3 S1 1.5797(13)
N3 S2 1.5825(13)
O1 S1 1.4293(11)
O2 S1 1.4335(11)
O3 S2 1.4305(11)
O4 S2 1.4326(11)
