#------------------------------------------------------------------------------
#$Date: 2016-02-18 17:37:37 +0200 (Thu, 18 Feb 2016) $
#$Revision: 176729 $
#$URL: svn://www.crystallography.net/cod/cif/1/50/20/1502067.cif $
#------------------------------------------------------------------------------
#
# This file is available in the Crystallography Open Database (COD),
# http://www.crystallography.net/
#
# All data on this site have been placed in the public domain by the
# contributors.
#
data_1502067
loop_
_publ_author_name
'Brichacek, Matthew'
'Villalobos, Mauricio Navarro'
'Plichta, Alexandra'
'Njardarson, Jon T.'
_publ_section_title
;
 Stereospecific ring expansion of chiral vinyl aziridines.
;
_journal_issue                   5
_journal_name_full               'Organic letters'
_journal_page_first              1110
_journal_page_last               1113
_journal_paper_doi               10.1021/ol200263g
_journal_volume                  13
_journal_year                    2011
_chemical_absolute_configuration ad
_chemical_formula_moiety         'C16 H29 N O4 S'
_chemical_formula_sum            'C16 H29 N O4 S'
_chemical_formula_weight         331.46
_chemical_name_systematic
; 
 ? 
;
_space_group_IT_number           19
_symmetry_cell_setting           orthorhombic
_symmetry_space_group_name_Hall  'P 2ac 2ab'
_symmetry_space_group_name_H-M   'P 21 21 21'
_atom_sites_solution_hydrogens   difmap
_atom_sites_solution_primary     direct
_atom_sites_solution_secondary   difmap
_audit_creation_method           SHELXL-97
_cell_angle_alpha                90.00
_cell_angle_beta                 90.00
_cell_angle_gamma                90.00
_cell_formula_units_Z            4
_cell_length_a                   10.8154(3)
_cell_length_b                   10.8724(4)
_cell_length_c                   15.4707(5)
_cell_measurement_reflns_used    9895
_cell_measurement_temperature    173(2)
_cell_measurement_theta_max      29.39
_cell_measurement_theta_min      2.29
_cell_volume                     1819.19(10)
_computing_cell_refinement       'Bruker SAINT+'
_computing_data_collection       'Bruker APEX2'
_computing_data_reduction        'Bruker SAINT+'
_computing_molecular_graphics    'Bruker SHELXTL'
_computing_publication_material  'Bruker SHELXTL'
_computing_structure_refinement  'SHELXL-97 (Sheldrick, 1997)'
_computing_structure_solution    'SHELXS-97 (Sheldrick, 1990)'
_diffrn_ambient_temperature      173(2)
_diffrn_measured_fraction_theta_full 0.993
_diffrn_measured_fraction_theta_max 0.993
_diffrn_measurement_device_type  'Bruker X8 APEX II diffractometer'
_diffrn_measurement_method       'phi and omega scans'
_diffrn_radiation_monochromator  graphite
_diffrn_radiation_source         'fine-focus sealed tube'
_diffrn_radiation_type           MoK\a
_diffrn_radiation_wavelength     0.71073
_diffrn_reflns_av_R_equivalents  0.0244
_diffrn_reflns_av_sigmaI/netI    0.0216
_diffrn_reflns_limit_h_max       11
_diffrn_reflns_limit_h_min       -14
_diffrn_reflns_limit_k_max       13
_diffrn_reflns_limit_k_min       -14
_diffrn_reflns_limit_l_max       20
_diffrn_reflns_limit_l_min       -20
_diffrn_reflns_number            20895
_diffrn_reflns_theta_full        28.27
_diffrn_reflns_theta_max         28.27
_diffrn_reflns_theta_min         2.29
_diffrn_standards_number         0
_exptl_absorpt_coefficient_mu    0.194
_exptl_absorpt_correction_T_max  0.9440
_exptl_absorpt_correction_T_min  0.9091
_exptl_absorpt_correction_type   multi-scan
_exptl_absorpt_process_details   SADABS
_exptl_crystal_colour            colourless
_exptl_crystal_density_diffrn    1.210
_exptl_crystal_density_method    'not measured'
_exptl_crystal_description       block
_exptl_crystal_F_000             720
_exptl_crystal_size_max          0.50
_exptl_crystal_size_mid          0.40
_exptl_crystal_size_min          0.30
_refine_diff_density_max         0.211
_refine_diff_density_min         -0.182
_refine_diff_density_rms         0.035
_refine_ls_abs_structure_details 'Flack H D (1983), Acta Cryst. A39, 876-881'
_refine_ls_abs_structure_Flack   -0.01(4)
_refine_ls_extinction_method     none
_refine_ls_goodness_of_fit_ref   1.019
_refine_ls_hydrogen_treatment    refall
_refine_ls_matrix_type           full
_refine_ls_number_parameters     315
_refine_ls_number_reflns         4471
_refine_ls_number_restraints     0
_refine_ls_restrained_S_all      1.019
_refine_ls_R_factor_all          0.0304
_refine_ls_R_factor_gt           0.0274
_refine_ls_shift/su_max          0.001
_refine_ls_shift/su_mean         0.000
_refine_ls_structure_factor_coef Fsqd
_refine_ls_weighting_details
'calc w=1/[\s^2^(Fo^2^)+(0.0531P)^2^+0.0474P] where P=(Fo^2^+2Fc^2^)/3'
_refine_ls_weighting_scheme      calc
_refine_ls_wR_factor_gt          0.0718
_refine_ls_wR_factor_ref         0.0740
_reflns_number_gt                4190
_reflns_number_total             4471
_reflns_threshold_expression     >2sigma(I)
_cod_data_source_file            ol200263g_si_001.cif
_cod_data_source_block           mnv2
_cod_depositor_comments
;
The following automatic conversions were performed:

'_symmetry_cell_setting' value 'Orthorhombic' changed to
'orthorhombic' according to
/home/saulius/struct/CIF-dictionaries/cif_core.dic dictionary named
'cif_core.dic' version 2.4.1 from 2010-06-29.

Automatic conversion script
Id: cif_fix_values 1715 2011-07-08 13:25:40Z adriana 
;
_cod_original_sg_symbol_H-M      P2(1)2(1)2(1)
_cod_database_code               1502067
loop_
_symmetry_equiv_pos_as_xyz
'x, y, z'
'-x+1/2, -y, z+1/2'
'-x, y+1/2, -z+1/2'
'x+1/2, -y+1/2, -z'
loop_
_atom_site_label
_atom_site_type_symbol
_atom_site_fract_x
_atom_site_fract_y
_atom_site_fract_z
_atom_site_U_iso_or_equiv
_atom_site_adp_type
_atom_site_occupancy
_atom_site_symmetry_multiplicity
_atom_site_calc_flag
S1 S 0.90229(3) 0.57141(3) 0.159943(17) 0.02254(8) Uani 1 1 d
O1 O 1.02289(9) 0.55553(11) 0.19694(6) 0.0389(3) Uani 1 1 d
O2 O 0.83317(11) 0.46364(9) 0.13741(7) 0.0394(3) Uani 1 1 d
O3 O 0.57103(9) 0.69793(10) 0.17000(6) 0.0374(2) Uani 1 1 d
O4 O 0.49625(7) 0.57786(9) 0.27710(5) 0.02432(18) Uani 1 1 d
N1 N 0.81492(9) 0.65247(9) 0.22569(6) 0.0207(2) Uani 1 1 d
C1 C 0.87606(12) 0.73603(12) 0.28857(7) 0.0257(3) Uani 1 1 d
C2 C 0.81126(12) 0.70846(12) 0.37205(7) 0.0251(2) Uani 1 1 d
C3 C 0.72203(12) 0.62742(12) 0.36007(8) 0.0253(3) Uani 1 1 d
C4 C 0.70967(11) 0.58968(11) 0.26714(7) 0.0210(2) Uani 1 1 d
C5 C 0.58535(11) 0.63029(11) 0.23026(7) 0.0231(2) Uani 1 1 d
C6 C 0.36380(11) 0.59617(12) 0.25622(7) 0.0234(2) Uani 1 1 d
C7 C 0.29908(13) 0.52421(15) 0.32725(8) 0.0323(3) Uani 1 1 d
C8 C 0.33130(15) 0.73119(14) 0.26076(11) 0.0376(3) Uani 1 1 d
C9 C 0.33711(13) 0.53994(15) 0.16880(8) 0.0341(3) Uani 1 1 d
C10 C 0.91967(12) 0.66449(12) 0.06414(8) 0.0275(3) Uani 1 1 d
C11 C 0.9733(2) 0.78859(14) 0.08837(11) 0.0448(4) Uani 1 1 d
C12 C 1.00967(14) 0.59523(14) 0.00546(8) 0.0314(3) Uani 1 1 d
C13 C 0.79305(16) 0.6760(2) 0.02092(10) 0.0480(4) Uani 1 1 d
C14 C 0.84862(14) 0.76794(15) 0.45521(8) 0.0338(3) Uani 1 1 d
C15 C 0.98191(15) 0.73970(14) 0.48048(9) 0.0352(3) Uani 1 1 d
C16 C 1.00824(19) 0.60345(17) 0.48481(13) 0.0467(4) Uani 1 1 d
H7C H 0.3181(16) 0.5593(16) 0.3814(12) 0.040(5) Uiso 1 1 d
H12B H 1.0895(14) 0.5921(14) 0.0323(9) 0.024(3) Uiso 1 1 d
H8C H 0.357(2) 0.770(2) 0.3106(14) 0.059(6) Uiso 1 1 d
H1A H 0.8627(15) 0.8217(14) 0.2653(9) 0.029(4) Uiso 1 1 d
H8B H 0.3699(16) 0.7763(15) 0.2122(11) 0.038(4) Uiso 1 1 d
H7B H 0.2103(19) 0.5315(17) 0.3159(13) 0.051(5) Uiso 1 1 d
H8A H 0.240(2) 0.7400(18) 0.2561(11) 0.050(5) Uiso 1 1 d
H14B H 0.8446(17) 0.8569(17) 0.4495(12) 0.044(5) Uiso 1 1 d
H7A H 0.3210(15) 0.4324(15) 0.3224(10) 0.033(4) Uiso 1 1 d
H3 H 0.6719(15) 0.5979(15) 0.4043(10) 0.030(4) Uiso 1 1 d
H16C H 0.955(2) 0.5770(19) 0.5253(14) 0.054(6) Uiso 1 1 d
H15B H 0.9992(17) 0.7782(17) 0.5331(12) 0.041(5) Uiso 1 1 d
H15A H 1.0463(17) 0.7802(17) 0.4420(12) 0.043(5) Uiso 1 1 d
H4 H 0.7148(14) 0.5036(15) 0.2593(9) 0.025(4) Uiso 1 1 d
H16B H 0.9883(19) 0.5607(19) 0.4283(14) 0.061(6) Uiso 1 1 d
H9C H 0.3780(18) 0.5819(17) 0.1198(12) 0.044(5) Uiso 1 1 d
H14A H 0.7882(17) 0.7322(18) 0.5015(12) 0.044(5) Uiso 1 1 d
H13C H 0.7597(19) 0.579(2) 0.0050(13) 0.058(6) Uiso 1 1 d
H9B H 0.2478(17) 0.5423(16) 0.1598(12) 0.041(5) Uiso 1 1 d
H12A H 0.9780(17) 0.5092(19) -0.0019(12) 0.049(5) Uiso 1 1 d
H13B H 0.799(2) 0.724(2) -0.0281(16) 0.067(6) Uiso 1 1 d
H16A H 1.087(2) 0.5796(19) 0.5037(13) 0.055(5) Uiso 1 1 d
H9A H 0.3629(19) 0.4486(19) 0.1661(13) 0.060(6) Uiso 1 1 d
H13A H 0.7405(18) 0.7147(19) 0.0559(13) 0.050(5) Uiso 1 1 d
H1B H 0.9632(17) 0.7209(16) 0.2932(11) 0.036(4) Uiso 1 1 d
H12C H 1.0210(17) 0.6425(17) -0.0483(12) 0.044(5) Uiso 1 1 d
H11C H 0.917(2) 0.831(2) 0.1171(14) 0.064(6) Uiso 1 1 d
H11B H 1.048(2) 0.780(2) 0.1214(14) 0.054(6) Uiso 1 1 d
H11A H 0.997(2) 0.830(2) 0.0357(15) 0.062(6) Uiso 1 1 d
loop_
_atom_site_aniso_label
_atom_site_aniso_U_11
_atom_site_aniso_U_22
_atom_site_aniso_U_33
_atom_site_aniso_U_23
_atom_site_aniso_U_13
_atom_site_aniso_U_12
S1 0.01956(14) 0.02053(13) 0.02755(12) 0.00220(10) 0.00517(10) 0.00265(12)
O1 0.0235(5) 0.0537(7) 0.0394(5) 0.0097(5) 0.0036(4) 0.0161(5)
O2 0.0489(6) 0.0242(5) 0.0451(5) -0.0086(4) 0.0193(5) -0.0097(5)
O3 0.0216(5) 0.0502(6) 0.0403(5) 0.0201(5) 0.0010(4) 0.0007(4)
O4 0.0136(4) 0.0320(4) 0.0274(4) 0.0050(4) -0.0009(3) -0.0018(4)
N1 0.0151(5) 0.0215(5) 0.0254(4) -0.0017(4) 0.0022(4) -0.0019(4)
C1 0.0234(7) 0.0259(6) 0.0278(5) -0.0021(4) -0.0009(4) -0.0051(5)
C2 0.0210(6) 0.0295(6) 0.0249(5) -0.0018(4) -0.0013(4) 0.0045(5)
C3 0.0191(6) 0.0328(6) 0.0239(5) 0.0024(4) 0.0014(4) 0.0017(5)
C4 0.0148(5) 0.0222(6) 0.0259(5) 0.0021(4) 0.0026(4) -0.0011(4)
C5 0.0176(6) 0.0259(5) 0.0257(5) -0.0005(4) 0.0012(4) -0.0027(5)
C6 0.0128(5) 0.0320(6) 0.0254(5) -0.0009(4) -0.0006(4) 0.0003(4)
C7 0.0180(6) 0.0483(8) 0.0308(6) 0.0041(5) 0.0023(5) -0.0046(6)
C8 0.0282(8) 0.0352(7) 0.0495(8) -0.0027(6) 0.0035(6) 0.0082(6)
C9 0.0241(7) 0.0502(9) 0.0280(6) -0.0058(5) -0.0025(5) -0.0054(6)
C10 0.0268(7) 0.0279(6) 0.0279(5) 0.0062(4) 0.0065(5) 0.0039(5)
C11 0.0625(12) 0.0233(7) 0.0488(9) 0.0036(6) 0.0256(9) -0.0034(7)
C12 0.0290(7) 0.0343(8) 0.0308(6) 0.0000(5) 0.0094(5) 0.0016(6)
C13 0.0332(8) 0.0799(13) 0.0308(7) 0.0133(8) 0.0036(6) 0.0187(9)
C14 0.0340(7) 0.0382(7) 0.0290(6) -0.0093(5) -0.0052(5) 0.0040(6)
C15 0.0362(8) 0.0371(8) 0.0324(7) -0.0023(6) -0.0109(5) -0.0060(6)
C16 0.0422(10) 0.0433(9) 0.0546(9) 0.0116(7) -0.0178(8) 0.0009(8)
loop_
_atom_type_symbol
_atom_type_description
_atom_type_scat_dispersion_real
_atom_type_scat_dispersion_imag
_atom_type_scat_source
C C 0.0033 0.0016 'International Tables Vol C Tables 4.2.6.8 and 6.1.1.4'
H H 0.0000 0.0000 'International Tables Vol C Tables 4.2.6.8 and 6.1.1.4'
N N 0.0061 0.0033 'International Tables Vol C Tables 4.2.6.8 and 6.1.1.4'
O O 0.0106 0.0060 'International Tables Vol C Tables 4.2.6.8 and 6.1.1.4'
S S 0.1246 0.1234 'International Tables Vol C Tables 4.2.6.8 and 6.1.1.4'
loop_
_geom_angle_atom_site_label_1
_geom_angle_atom_site_label_2
_geom_angle_atom_site_label_3
_geom_angle
O2 S1 O1 118.22(7)
O2 S1 N1 106.79(6)
O1 S1 N1 109.89(6)
O2 S1 C10 108.25(6)
O1 S1 C10 107.48(6)
N1 S1 C10 105.51(5)
C5 O4 C6 121.50(9)
C4 N1 C1 110.00(9)
C4 N1 S1 117.68(8)
C1 N1 S1 118.47(8)
N1 C1 C2 103.51(10)
C3 C2 C14 127.37(12)
C3 C2 C1 110.74(10)
C14 C2 C1 121.89(12)
C2 C3 C4 112.47(11)
N1 C4 C3 102.78(9)
N1 C4 C5 112.57(9)
C3 C4 C5 110.95(10)
O3 C5 O4 126.31(12)
O3 C5 C4 125.64(11)
O4 C5 C4 108.05(9)
O4 C6 C8 110.20(11)
O4 C6 C9 108.98(10)
C8 C6 C9 112.95(12)
O4 C6 C7 102.62(9)
C8 C6 C7 111.06(11)
C9 C6 C7 110.52(11)
C11 C10 C12 109.98(12)
C11 C10 C13 112.20(14)
C12 C10 C13 110.53(12)
C11 C10 S1 109.63(10)
C12 C10 S1 106.13(9)
C13 C10 S1 108.17(10)
C2 C14 C15 112.88(12)
C16 C15 C14 112.78(14)
loop_
_geom_bond_atom_site_label_1
_geom_bond_atom_site_label_2
_geom_bond_distance
S1 O2 1.4329(10)
S1 O1 1.4348(10)
S1 N1 1.6445(10)
S1 C10 1.8045(12)
O3 C5 1.1974(15)
O4 C5 1.3337(14)
O4 C6 1.4819(14)
N1 C4 1.4741(14)
N1 C1 1.4862(15)
C1 C2 1.4997(16)
C2 C3 1.3199(19)
C2 C14 1.4956(17)
C3 C4 1.5010(16)
C4 C5 1.5258(16)
C6 C8 1.5111(19)
C6 C9 1.5120(16)
C6 C7 1.5198(17)
C10 C11 1.516(2)
C10 C12 1.5293(18)
C10 C13 1.529(2)
C14 C15 1.525(2)
C15 C16 1.510(2)
