#------------------------------------------------------------------------------
#$Date: 2016-02-18 17:37:37 +0200 (Thu, 18 Feb 2016) $
#$Revision: 176729 $
#$URL: svn://www.crystallography.net/cod/cif/1/50/57/1505711.cif $
#------------------------------------------------------------------------------
#
# This file is available in the Crystallography Open Database (COD),
# http://www.crystallography.net/
#
# All data on this site have been placed in the public domain by the
# contributors.
#
data_1505711
loop_
_publ_author_name
'Ren, X. M.'
'Akutagawa, T.'
'Noro, S.'
'Nishihara, S.'
'Nakamura, T.'
'Yoshida, Y.'
'Inoue, K.'
_publ_section_title
;
 Structural and magnetic investigations for the doping effect of
 nonmagnetic impurity on the spin-Peierls-like transition in a
 quasi-one-dimensional magnet: 1-(4'-nitrobenzyl)pyridinium
 bis(maleonitriledithiolato)nickelate.
;
_journal_issue                   15
_journal_name_full               'The journal of physical chemistry. B'
_journal_page_first              7671
_journal_page_last               7677
_journal_paper_doi               10.1021/jp0556106
_journal_volume                  110
_journal_year                    2006
_chemical_formula_sum            'C20 H11 Au0.21 N6 Ni0.79 O2 S4'
_chemical_formula_weight         582.95
_chemical_name_systematic
; 
 ? 
;
_space_group_IT_number           14
_symmetry_cell_setting           monoclinic
_symmetry_space_group_name_Hall  '-P 2ybc'
_symmetry_space_group_name_H-M   'P 1 21/c 1'
_atom_sites_solution_hydrogens   geom
_atom_sites_solution_primary     direct
_atom_sites_solution_secondary   difmap
_audit_creation_method           SHELXL-97
_cell_angle_alpha                90.00
_cell_angle_beta                 102.98(3)
_cell_angle_gamma                90.00
_cell_formula_units_Z            4
_cell_length_a                   12.194(2)
_cell_length_b                   26.577(5)
_cell_length_c                   7.2260(14)
_cell_measurement_temperature    273(2)
_cell_volume                     2282.0(8)
_computing_structure_refinement  'SHELXL-97 (Sheldrick, 1997)'
_computing_structure_solution    'SHELXS-97 (Sheldrick, 1990)'
_diffrn_ambient_temperature      273(2)
_diffrn_measured_fraction_theta_full 0.976
_diffrn_measured_fraction_theta_max 0.976
_diffrn_radiation_monochromator  graphite
_diffrn_radiation_source         'fine-focus sealed tube'
_diffrn_radiation_type           MoK\a
_diffrn_radiation_wavelength     0.71073
_diffrn_reflns_av_R_equivalents  0.0586
_diffrn_reflns_av_sigmaI/netI    0.0554
_diffrn_reflns_limit_h_max       15
_diffrn_reflns_limit_h_min       -15
_diffrn_reflns_limit_k_max       34
_diffrn_reflns_limit_k_min       -34
_diffrn_reflns_limit_l_max       8
_diffrn_reflns_limit_l_min       -9
_diffrn_reflns_number            32833
_diffrn_reflns_theta_full        27.47
_diffrn_reflns_theta_max         27.47
_diffrn_reflns_theta_min         2.99
_exptl_absorpt_coefficient_mu    2.407
_exptl_crystal_density_diffrn    1.697
_exptl_crystal_density_method    'not measured'
_exptl_crystal_F_000             1166
_refine_diff_density_max         0.694
_refine_diff_density_min         -0.718
_refine_diff_density_rms         0.092
_refine_ls_extinction_method     none
_refine_ls_goodness_of_fit_ref   1.084
_refine_ls_hydrogen_treatment    mixed
_refine_ls_matrix_type           full
_refine_ls_number_parameters     299
_refine_ls_number_reflns         5106
_refine_ls_number_restraints     0
_refine_ls_restrained_S_all      1.084
_refine_ls_R_factor_all          0.0724
_refine_ls_R_factor_gt           0.0508
_refine_ls_shift/su_max          0.000
_refine_ls_shift/su_mean         0.000
_refine_ls_structure_factor_coef Fsqd
_refine_ls_weighting_details
'calc w=1/[\s^2^(Fo^2^)+(0.0394P)^2^+2.2178P] where P=(Fo^2^+2Fc^2^)/3'
_refine_ls_weighting_scheme      calc
_refine_ls_wR_factor_gt          0.1017
_refine_ls_wR_factor_ref         0.1172
_reflns_number_gt                3470
_reflns_number_total             5106
_reflns_threshold_expression     >2sigma(I)
_cod_data_source_file            jp0556106si20060207_063811.cif
_cod_data_source_block           x=0.21_at_273_K
_cod_depositor_comments
;
The following automatic conversions were performed:

'_symmetry_cell_setting' value 'Monoclinic' changed to 'monoclinic'
according to /home/saulius/struct/CIF-dictionaries/cif_core.dic
dictionary named 'cif_core.dic' version 2.4.1 from 2010-06-29.

Automatic conversion script
Id: cif_fix_values 1715 2011-07-08 13:25:40Z adriana 
;
_cod_original_cell_volume        2282.1(8)
_cod_original_sg_symbol_H-M      P2(1)/c
_cod_database_code               1505711
loop_
_symmetry_equiv_pos_as_xyz
'x, y, z'
'-x, y+1/2, -z+1/2'
'-x, -y, -z'
'x, -y-1/2, z-1/2'
loop_
_atom_site_label
_atom_site_type_symbol
_atom_site_fract_x
_atom_site_fract_y
_atom_site_fract_z
_atom_site_U_iso_or_equiv
_atom_site_adp_type
_atom_site_occupancy
_atom_site_symmetry_multiplicity
_atom_site_calc_flag
_atom_site_refinement_flags
Au1 Au -0.23172(3) 0.226235(13) -0.44979(5) 0.04339(15) Uani 0.2082(11) 1 d P
Ni1 Ni -0.23172(3) 0.226235(13) -0.44979(5) 0.04339(15) Uani 0.7918(11) 1 d P
S1 S -0.34277(10) 0.16271(4) -0.54741(16) 0.0533(3) Uani 1 1 d .
S2 S -0.08858(11) 0.17740(5) -0.34258(17) 0.0569(3) Uani 1 1 d .
S3 S -0.37090(10) 0.27834(4) -0.55565(16) 0.0512(3) Uani 1 1 d .
S4 S -0.11452(11) 0.28903(4) -0.36338(16) 0.0539(3) Uani 1 1 d .
O1 O 0.1678(4) 0.16479(16) -0.0130(7) 0.1091(16) Uani 1 1 d .
O2 O 0.3472(5) 0.16218(16) 0.0593(7) 0.1108(17) Uani 1 1 d .
N1 N -0.3328(4) 0.02537(17) -0.6154(6) 0.0757(13) Uani 1 1 d .
N2 N 0.0077(4) 0.04845(18) -0.3449(7) 0.0839(15) Uani 1 1 d .
N3 N -0.4362(4) 0.41270(16) -0.6294(7) 0.0751(13) Uani 1 1 d .
N4 N -0.0943(4) 0.42651(16) -0.3830(6) 0.0736(13) Uani 1 1 d .
N5 N 0.2775(3) 0.42634(13) -0.1115(5) 0.0488(9) Uani 1 1 d .
N6 N 0.2600(5) 0.18510(17) 0.0244(6) 0.0674(12) Uani 1 1 d .
C1 C -0.2969(4) 0.06348(19) -0.5615(7) 0.0580(12) Uani 1 1 d .
C2 C -0.2517(4) 0.11195(17) -0.4991(6) 0.0535(12) Uani 1 1 d .
C3 C -0.1412(4) 0.11875(17) -0.4113(6) 0.0536(12) Uani 1 1 d .
C4 C -0.0615(5) 0.07818(19) -0.3745(7) 0.0611(13) Uani 1 1 d .
C5 C -0.3777(4) 0.37926(17) -0.5783(6) 0.0553(12) Uani 1 1 d .
C6 C -0.3072(4) 0.33661(15) -0.5185(5) 0.0449(10) Uani 1 1 d .
C7 C -0.1964(4) 0.34094(16) -0.4369(5) 0.0460(10) Uani 1 1 d .
C8 C -0.1406(4) 0.38899(18) -0.4070(6) 0.0550(12) Uani 1 1 d .
C9 C 0.3748(5) 0.43422(19) -0.1600(8) 0.0673(14) Uani 1 1 d .
H9A H 0.4413 0.4232 -0.0803 0.081 Uiso 1 1 calc R
C10 C 0.3786(6) 0.4582(2) -0.3245(9) 0.0827(18) Uani 1 1 d .
H10A H 0.4471 0.4640 -0.3571 0.099 Uiso 1 1 calc R
C11 C 0.2794(7) 0.4739(2) -0.4425(8) 0.0814(19) Uani 1 1 d .
H11A H 0.2802 0.4898 -0.5568 0.098 Uiso 1 1 calc R
C12 C 0.1795(6) 0.46579(19) -0.3897(8) 0.0789(17) Uani 1 1 d .
H12A H 0.1121 0.4767 -0.4670 0.095 Uiso 1 1 calc R
C13 C 0.1800(5) 0.44162(18) -0.2229(7) 0.0636(13) Uani 1 1 d .
H13A H 0.1126 0.4358 -0.1865 0.076 Uiso 1 1 calc R
C14 C 0.2762(4) 0.40016(17) 0.0702(6) 0.0570(12) Uani 1 1 d .
H14A H 0.2113 0.4113 0.1159 0.068 Uiso 1 1 calc R
H14B H 0.3432 0.4093 0.1645 0.068 Uiso 1 1 calc R
C15 C 0.2717(4) 0.34357(16) 0.0477(5) 0.0447(9) Uani 1 1 d .
C16 C 0.3701(4) 0.31538(18) 0.0915(7) 0.0577(12) Uani 1 1 d .
H16A H 0.4394 0.3314 0.1276 0.069 Uiso 1 1 calc R
C17 C 0.3648(4) 0.26352(18) 0.0814(7) 0.0564(12) Uani 1 1 d .
H17A H 0.4303 0.2444 0.1102 0.068 Uiso 1 1 calc R
C18 C 0.2618(4) 0.24056(17) 0.0285(6) 0.0479(10) Uani 1 1 d .
C19 C 0.1641(5) 0.26728(19) -0.0182(7) 0.0643(14) Uani 1 1 d .
H19A H 0.0952 0.2510 -0.0552 0.077 Uiso 1 1 calc R
C20 C 0.1697(4) 0.31906(18) -0.0093(7) 0.0594(12) Uani 1 1 d .
H20A H 0.1038 0.3378 -0.0422 0.071 Uiso 1 1 calc R
loop_
_atom_site_aniso_label
_atom_site_aniso_U_11
_atom_site_aniso_U_22
_atom_site_aniso_U_33
_atom_site_aniso_U_23
_atom_site_aniso_U_13
_atom_site_aniso_U_12
Au1 0.0400(2) 0.0427(2) 0.0464(2) 0.00404(15) 0.00722(15) -0.00064(16)
Ni1 0.0400(2) 0.0427(2) 0.0464(2) 0.00404(15) 0.00722(15) -0.00064(16)
S1 0.0459(7) 0.0530(7) 0.0592(7) 0.0046(5) 0.0081(5) -0.0008(5)
S2 0.0448(7) 0.0615(7) 0.0608(7) 0.0016(5) 0.0041(5) 0.0018(5)
S3 0.0419(7) 0.0491(6) 0.0587(7) 0.0028(5) 0.0033(5) -0.0031(5)
S4 0.0431(7) 0.0554(7) 0.0580(7) 0.0034(5) 0.0000(5) -0.0046(5)
O1 0.097(4) 0.064(3) 0.156(4) 0.007(3) 0.006(3) -0.020(3)
O2 0.114(4) 0.061(3) 0.153(4) 0.015(3) 0.021(3) 0.024(3)
N1 0.078(4) 0.057(3) 0.089(3) 0.004(2) 0.010(3) -0.006(2)
N2 0.080(4) 0.076(3) 0.089(3) 0.002(3) 0.007(3) 0.024(3)
N3 0.058(3) 0.056(3) 0.107(3) -0.004(2) 0.010(3) 0.002(2)
N4 0.066(3) 0.059(3) 0.091(3) -0.006(2) 0.007(2) -0.013(2)
N5 0.043(2) 0.0418(19) 0.062(2) -0.0052(16) 0.0119(18) -0.0026(16)
N6 0.077(4) 0.058(3) 0.064(3) 0.009(2) 0.012(2) -0.003(3)
C1 0.058(3) 0.052(3) 0.063(3) 0.008(2) 0.010(2) 0.001(2)
C2 0.066(4) 0.051(3) 0.044(2) 0.0053(18) 0.012(2) -0.003(2)
C3 0.059(3) 0.056(3) 0.045(2) 0.0061(19) 0.010(2) 0.003(2)
C4 0.059(4) 0.063(3) 0.060(3) 0.006(2) 0.013(2) 0.006(3)
C5 0.053(3) 0.049(3) 0.061(3) -0.006(2) 0.006(2) 0.001(2)
C6 0.046(3) 0.045(2) 0.045(2) -0.0014(17) 0.0122(19) -0.0004(19)
C7 0.044(3) 0.051(2) 0.040(2) -0.0005(17) 0.0047(18) -0.0010(19)
C8 0.052(3) 0.056(3) 0.054(3) -0.003(2) 0.004(2) -0.004(2)
C9 0.052(4) 0.062(3) 0.091(4) 0.005(3) 0.023(3) 0.005(2)
C10 0.093(5) 0.060(3) 0.110(5) 0.005(3) 0.054(4) 0.000(3)
C11 0.123(6) 0.053(3) 0.072(4) 0.004(3) 0.030(4) -0.005(3)
C12 0.089(5) 0.058(3) 0.076(3) 0.011(3) -0.010(3) -0.006(3)
C13 0.049(3) 0.057(3) 0.079(3) 0.005(2) 0.002(3) -0.004(2)
C14 0.057(3) 0.057(3) 0.058(3) -0.002(2) 0.013(2) 0.000(2)
C15 0.033(2) 0.057(2) 0.047(2) 0.0039(18) 0.0132(18) 0.0023(19)
C16 0.031(3) 0.066(3) 0.075(3) 0.002(2) 0.008(2) -0.001(2)
C17 0.032(3) 0.065(3) 0.073(3) 0.004(2) 0.014(2) 0.010(2)
C18 0.049(3) 0.053(3) 0.042(2) 0.0033(18) 0.011(2) -0.001(2)
C19 0.042(3) 0.065(3) 0.081(3) 0.008(3) 0.003(2) -0.008(2)
C20 0.029(3) 0.063(3) 0.088(3) 0.009(2) 0.016(2) 0.007(2)
loop_
_atom_type_symbol
_atom_type_description
_atom_type_scat_dispersion_real
_atom_type_scat_dispersion_imag
_atom_type_scat_source
C C 0.0033 0.0016 'International Tables Vol C Tables 4.2.6.8 and 6.1.1.4'
H H 0.0000 0.0000 'International Tables Vol C Tables 4.2.6.8 and 6.1.1.4'
N N 0.0061 0.0033 'International Tables Vol C Tables 4.2.6.8 and 6.1.1.4'
O O 0.0106 0.0060 'International Tables Vol C Tables 4.2.6.8 and 6.1.1.4'
S S 0.1246 0.1234 'International Tables Vol C Tables 4.2.6.8 and 6.1.1.4'
Au Au -2.0133 8.8022 'International Tables Vol C Tables 4.2.6.8 and 6.1.1.4'
Ni Ni 0.3393 1.1124 'International Tables Vol C Tables 4.2.6.8 and 6.1.1.4'
loop_
_geom_angle_atom_site_label_1
_geom_angle_atom_site_label_2
_geom_angle_atom_site_label_3
_geom_angle
S2 Au1 S1 92.51(5)
S2 Au1 S3 177.44(5)
S1 Au1 S3 90.02(5)
S2 Au1 S4 86.16(5)
S1 Au1 S4 176.78(5)
S3 Au1 S4 91.29(5)
C2 S1 Au1 102.37(17)
C3 S2 Au1 102.77(17)
C6 S3 Au1 103.08(16)
C7 S4 Au1 103.10(16)
C9 N5 C13 121.3(4)
C9 N5 C14 119.6(4)
C13 N5 C14 119.1(4)
O2 N6 O1 123.3(5)
O2 N6 C18 119.6(5)
O1 N6 C18 117.1(5)
N1 C1 C2 178.3(5)
C3 C2 C1 122.3(4)
C3 C2 S1 120.8(4)
C1 C2 S1 116.9(4)
C2 C3 C4 122.9(4)
C2 C3 S2 121.4(4)
C4 C3 S2 115.8(4)
N2 C4 C3 175.1(6)
N3 C5 C6 178.2(5)
C7 C6 C5 122.6(4)
C7 C6 S3 121.0(3)
C5 C6 S3 116.4(3)
C6 C7 C8 122.2(4)
C6 C7 S4 121.4(3)
C8 C7 S4 116.3(3)
N4 C8 C7 178.6(6)
N5 C9 C10 120.9(5)
C9 C10 C11 119.0(6)
C10 C11 C12 119.4(6)
C13 C12 C11 119.4(6)
N5 C13 C12 120.0(5)
N5 C14 C15 112.1(3)
C16 C15 C20 119.1(4)
C16 C15 C14 120.2(4)
C20 C15 C14 120.6(4)
C15 C16 C17 119.9(4)
C18 C17 C16 119.2(4)
C19 C18 C17 122.1(5)
C19 C18 N6 120.5(5)
C17 C18 N6 117.4(4)
C18 C19 C20 118.5(5)
C15 C20 C19 121.1(4)
loop_
_geom_bond_atom_site_label_1
_geom_bond_atom_site_label_2
_geom_bond_distance
Au1 S2 2.1735(13)
Au1 S1 2.1801(13)
Au1 S3 2.1910(13)
Au1 S4 2.1946(13)
S1 C2 1.733(5)
S2 C3 1.716(5)
S3 C6 1.726(4)
S4 C7 1.716(4)
O1 N6 1.222(6)
O2 N6 1.202(6)
N1 C1 1.137(6)
N2 C4 1.141(6)
N3 C5 1.148(6)
N4 C8 1.140(6)
N5 C9 1.327(6)
N5 C13 1.341(6)
N5 C14 1.490(5)
N6 C18 1.475(6)
C1 C2 1.434(7)
C2 C3 1.366(7)
C3 C4 1.436(7)
C5 C6 1.430(6)
C6 C7 1.351(6)
C7 C8 1.441(6)
C9 C10 1.359(7)
C10 C11 1.378(8)
C11 C12 1.373(8)
C12 C13 1.365(7)
C14 C15 1.512(6)
C15 C16 1.389(6)
C15 C20 1.382(6)
C16 C17 1.381(6)
C17 C18 1.371(6)
C18 C19 1.363(7)
C19 C20 1.378(6)
