#------------------------------------------------------------------------------
#$Date: 2016-02-18 17:37:37 +0200 (Thu, 18 Feb 2016) $
#$Revision: 176729 $
#$URL: svn://www.crystallography.net/cod/cif/1/50/57/1505717.cif $
#------------------------------------------------------------------------------
#
# This file is available in the Crystallography Open Database (COD),
# http://www.crystallography.net/
#
# All data on this site have been placed in the public domain by the
# contributors.
#
data_1505717
loop_
_publ_author_name
'Ren, X. M.'
'Akutagawa, T.'
'Noro, S.'
'Nishihara, S.'
'Nakamura, T.'
'Yoshida, Y.'
'Inoue, K.'
_publ_section_title
;
 Structural and magnetic investigations for the doping effect of
 nonmagnetic impurity on the spin-Peierls-like transition in a
 quasi-one-dimensional magnet: 1-(4'-nitrobenzyl)pyridinium
 bis(maleonitriledithiolato)nickelate.
;
_journal_issue                   15
_journal_name_full               'The journal of physical chemistry. B'
_journal_page_first              7671
_journal_page_last               7677
_journal_paper_doi               10.1021/jp0556106
_journal_volume                  110
_journal_year                    2006
_chemical_formula_sum            'C20 H11 Au0.73 N6 Ni0.27 O2 S4'
_chemical_formula_weight         654.56
_chemical_name_systematic
; 
 ? 
;
_space_group_IT_number           14
_symmetry_cell_setting           monoclinic
_symmetry_space_group_name_Hall  '-P 2ybc'
_symmetry_space_group_name_H-M   'P 1 21/c 1'
_atom_sites_solution_hydrogens   geom
_atom_sites_solution_primary     direct
_atom_sites_solution_secondary   difmap
_audit_creation_method           SHELXL-97
_cell_angle_alpha                90.00
_cell_angle_beta                 103.40(3)
_cell_angle_gamma                90.00
_cell_formula_units_Z            4
_cell_length_a                   12.203(2)
_cell_length_b                   26.670(5)
_cell_length_c                   7.2823(15)
_cell_measurement_temperature    273(2)
_cell_volume                     2305.5(8)
_computing_structure_refinement  'SHELXL-97 (Sheldrick, 1997)'
_computing_structure_solution    'SHELXS-97 (Sheldrick, 1990)'
_diffrn_ambient_temperature      273(2)
_diffrn_measured_fraction_theta_full 0.997
_diffrn_measured_fraction_theta_max 0.997
_diffrn_radiation_monochromator  graphite
_diffrn_radiation_source         'fine-focus sealed tube'
_diffrn_radiation_type           MoK\a
_diffrn_radiation_wavelength     0.71073
_diffrn_reflns_av_R_equivalents  0.0585
_diffrn_reflns_av_sigmaI/netI    0.0478
_diffrn_reflns_limit_h_max       15
_diffrn_reflns_limit_h_min       -15
_diffrn_reflns_limit_k_max       34
_diffrn_reflns_limit_k_min       -34
_diffrn_reflns_limit_l_max       9
_diffrn_reflns_limit_l_min       -8
_diffrn_reflns_number            32162
_diffrn_reflns_theta_full        27.48
_diffrn_reflns_theta_max         27.48
_diffrn_reflns_theta_min         3.06
_exptl_absorpt_coefficient_mu    5.252
_exptl_crystal_density_diffrn    1.886
_exptl_crystal_density_method    'not measured'
_exptl_crystal_F_000             1272
_refine_diff_density_max         0.792
_refine_diff_density_min         -1.041
_refine_diff_density_rms         0.110
_refine_ls_extinction_method     none
_refine_ls_goodness_of_fit_ref   1.098
_refine_ls_hydrogen_treatment    mixed
_refine_ls_matrix_type           full
_refine_ls_number_parameters     299
_refine_ls_number_reflns         5286
_refine_ls_number_restraints     0
_refine_ls_restrained_S_all      1.098
_refine_ls_R_factor_all          0.0537
_refine_ls_R_factor_gt           0.0425
_refine_ls_shift/su_max          0.001
_refine_ls_shift/su_mean         0.000
_refine_ls_structure_factor_coef Fsqd
_refine_ls_weighting_details
'calc w=1/[\s^2^(Fo^2^)+(0.0248P)^2^+0.6262P] where P=(Fo^2^+2Fc^2^)/3'
_refine_ls_weighting_scheme      calc
_refine_ls_wR_factor_gt          0.0695
_refine_ls_wR_factor_ref         0.0723
_reflns_number_gt                4183
_reflns_number_total             5286
_reflns_threshold_expression     >2sigma(I)
_cod_data_source_file            jp0556106si20060207_063811.cif
_cod_data_source_block           x=0.73_at_273K
_cod_depositor_comments
;
The following automatic conversions were performed:

'_symmetry_cell_setting' value 'Monoclinic' changed to 'monoclinic'
according to /home/saulius/struct/CIF-dictionaries/cif_core.dic
dictionary named 'cif_core.dic' version 2.4.1 from 2010-06-29.

Automatic conversion script
Id: cif_fix_values 1715 2011-07-08 13:25:40Z adriana 
;
_cod_original_sg_symbol_H-M      P2(1)/c
_cod_database_code               1505717
loop_
_symmetry_equiv_pos_as_xyz
'x, y, z'
'-x, y+1/2, -z+1/2'
'-x, -y, -z'
'x, -y-1/2, z-1/2'
loop_
_atom_site_label
_atom_site_type_symbol
_atom_site_fract_x
_atom_site_fract_y
_atom_site_fract_z
_atom_site_U_iso_or_equiv
_atom_site_adp_type
_atom_site_occupancy
_atom_site_symmetry_multiplicity
_atom_site_calc_flag
_atom_site_refinement_flags
Au1 Au -0.231879(19) 0.224898(6) -0.45242(3) 0.04167(7) Uani 0.7252(14) 1 d P
Ni1 Ni -0.231879(19) 0.224898(6) -0.45242(3) 0.04167(7) Uani 0.2748(14) 1 d P
S1 S -0.34682(10) 0.15853(4) -0.55231(15) 0.0517(3) Uani 1 1 d .
S2 S -0.08470(10) 0.17329(4) -0.33874(16) 0.0568(3) Uani 1 1 d .
S3 S -0.37563(10) 0.27933(3) -0.55945(16) 0.0496(3) Uani 1 1 d .
S4 S -0.11097(10) 0.28979(4) -0.36362(15) 0.0530(3) Uani 1 1 d .
O1 O 0.1695(4) 0.16545(14) -0.0144(7) 0.1188(17) Uani 1 1 d .
O2 O 0.3472(4) 0.16332(14) 0.0599(7) 0.1150(16) Uani 1 1 d .
N1 N -0.3333(4) 0.02308(15) -0.6178(6) 0.0797(13) Uani 1 1 d .
N2 N 0.0068(4) 0.04582(16) -0.3455(6) 0.0847(14) Uani 1 1 d .
N3 N -0.4355(4) 0.41301(14) -0.6274(6) 0.0746(12) Uani 1 1 d .
N4 N -0.0958(4) 0.42602(14) -0.3871(6) 0.0752(12) Uani 1 1 d .
N5 N 0.2766(3) 0.42557(11) -0.1160(5) 0.0499(8) Uani 1 1 d .
N6 N 0.2596(5) 0.18558(15) 0.0235(6) 0.0702(12) Uani 1 1 d .
C1 C -0.2957(4) 0.06068(16) -0.5637(6) 0.0555(11) Uani 1 1 d .
C2 C -0.2518(4) 0.10901(15) -0.5010(5) 0.0482(10) Uani 1 1 d .
C3 C -0.1429(4) 0.11553(15) -0.4144(5) 0.0494(10) Uani 1 1 d .
C4 C -0.0607(4) 0.07543(17) -0.3758(6) 0.0604(12) Uani 1 1 d .
C5 C -0.3777(4) 0.37971(15) -0.5782(6) 0.0526(10) Uani 1 1 d .
C6 C -0.3076(4) 0.33663(13) -0.5195(5) 0.0447(9) Uani 1 1 d .
C7 C -0.1977(4) 0.34059(14) -0.4395(5) 0.0460(10) Uani 1 1 d .
C8 C -0.1423(4) 0.38865(16) -0.4107(6) 0.0505(10) Uani 1 1 d .
C9 C 0.3748(4) 0.43361(16) -0.1614(7) 0.0673(13) Uani 1 1 d .
H9A H 0.4414 0.4228 -0.0812 0.081 Uiso 1 1 calc R
C10 C 0.3777(6) 0.45774(19) -0.3259(9) 0.0857(18) Uani 1 1 d .
H10A H 0.4460 0.4638 -0.3581 0.103 Uiso 1 1 calc R
C11 C 0.2776(6) 0.47294(18) -0.4434(7) 0.0837(19) Uani 1 1 d .
H11A H 0.2776 0.4886 -0.5573 0.100 Uiso 1 1 calc R
C12 C 0.1780(5) 0.46482(17) -0.3916(7) 0.0818(16) Uani 1 1 d .
H12A H 0.1102 0.4756 -0.4684 0.098 Uiso 1 1 calc R
C13 C 0.1798(4) 0.44084(16) -0.2263(7) 0.0650(12) Uani 1 1 d .
H13A H 0.1127 0.4351 -0.1900 0.078 Uiso 1 1 calc R
C14 C 0.2756(4) 0.39989(16) 0.0655(6) 0.0587(12) Uani 1 1 d .
H14A H 0.2108 0.4112 0.1101 0.070 Uiso 1 1 calc R
H14B H 0.3429 0.4091 0.1594 0.070 Uiso 1 1 calc R
C15 C 0.2710(4) 0.34372(15) 0.0442(5) 0.0466(9) Uani 1 1 d .
C16 C 0.3681(4) 0.31580(16) 0.0876(6) 0.0602(11) Uani 1 1 d .
H16A H 0.4373 0.3320 0.1233 0.072 Uiso 1 1 calc R
C17 C 0.3647(4) 0.26395(17) 0.0791(7) 0.0602(12) Uani 1 1 d .
H17A H 0.4306 0.2452 0.1087 0.072 Uiso 1 1 calc R
C18 C 0.2635(4) 0.24129(16) 0.0269(5) 0.0485(10) Uani 1 1 d .
C19 C 0.1647(4) 0.26749(17) -0.0207(8) 0.0667(13) Uani 1 1 d .
H19A H 0.0960 0.2510 -0.0574 0.080 Uiso 1 1 calc R
C20 C 0.1697(4) 0.31896(17) -0.0126(7) 0.0649(12) Uani 1 1 d .
H20A H 0.1034 0.3374 -0.0460 0.078 Uiso 1 1 calc R
loop_
_atom_site_aniso_label
_atom_site_aniso_U_11
_atom_site_aniso_U_22
_atom_site_aniso_U_33
_atom_site_aniso_U_23
_atom_site_aniso_U_13
_atom_site_aniso_U_12
Au1 0.04138(13) 0.03623(10) 0.04647(11) 0.00328(7) 0.00829(8) -0.00066(8)
Ni1 0.04138(13) 0.03623(10) 0.04647(11) 0.00328(7) 0.00829(8) -0.00066(8)
S1 0.0453(7) 0.0467(6) 0.0619(6) 0.0023(4) 0.0098(5) 0.0006(5)
S2 0.0472(7) 0.0557(6) 0.0636(6) 0.0017(5) 0.0048(5) 0.0013(5)
S3 0.0410(7) 0.0424(5) 0.0618(6) 0.0006(4) 0.0047(5) -0.0033(4)
S4 0.0436(7) 0.0489(6) 0.0607(6) 0.0044(5) 0.0002(5) -0.0036(5)
O1 0.106(4) 0.062(3) 0.169(4) 0.009(2) -0.008(3) -0.027(3)
O2 0.113(4) 0.057(2) 0.170(4) 0.020(2) 0.024(3) 0.023(2)
N1 0.091(4) 0.048(2) 0.094(3) 0.003(2) 0.010(3) -0.007(2)
N2 0.087(4) 0.071(3) 0.089(3) -0.001(2) 0.004(3) 0.028(3)
N3 0.062(3) 0.047(2) 0.109(3) -0.002(2) 0.007(3) 0.009(2)
N4 0.078(3) 0.054(2) 0.089(3) -0.005(2) 0.009(3) -0.017(2)
N5 0.047(2) 0.0399(17) 0.061(2) -0.0041(14) 0.0075(18) 0.0003(15)
N6 0.087(4) 0.053(2) 0.065(2) 0.0105(18) 0.007(2) 0.000(2)
C1 0.058(3) 0.048(3) 0.060(2) 0.0068(19) 0.012(2) 0.006(2)
C2 0.052(3) 0.046(2) 0.047(2) 0.0040(16) 0.014(2) 0.0002(19)
C3 0.056(3) 0.048(2) 0.047(2) 0.0067(17) 0.017(2) 0.0052(19)
C4 0.060(4) 0.060(3) 0.059(3) 0.004(2) 0.010(2) 0.012(2)
C5 0.053(3) 0.043(2) 0.062(2) -0.0040(18) 0.014(2) -0.002(2)
C6 0.045(3) 0.040(2) 0.049(2) -0.0010(16) 0.0110(19) 0.0002(17)
C7 0.054(3) 0.040(2) 0.046(2) -0.0027(15) 0.015(2) -0.0023(17)
C8 0.043(3) 0.051(2) 0.055(2) -0.0014(18) 0.007(2) -0.003(2)
C9 0.052(3) 0.059(3) 0.094(3) 0.006(2) 0.021(3) 0.007(2)
C10 0.100(5) 0.063(3) 0.109(4) 0.010(3) 0.054(4) 0.003(3)
C11 0.140(7) 0.047(3) 0.068(3) 0.005(2) 0.033(4) -0.006(3)
C12 0.091(5) 0.057(3) 0.083(3) 0.013(2) -0.010(3) -0.007(3)
C13 0.051(3) 0.055(3) 0.082(3) 0.007(2) 0.001(3) -0.003(2)
C14 0.062(3) 0.057(3) 0.056(2) -0.0028(19) 0.012(2) 0.000(2)
C15 0.045(3) 0.051(2) 0.044(2) 0.0019(17) 0.0103(19) 0.0022(19)
C16 0.038(3) 0.058(3) 0.080(3) 0.001(2) 0.003(2) -0.006(2)
C17 0.046(3) 0.059(3) 0.072(3) 0.007(2) 0.008(3) 0.011(2)
C18 0.053(3) 0.050(2) 0.043(2) 0.0043(17) 0.010(2) -0.003(2)
C19 0.038(3) 0.064(3) 0.092(4) 0.012(2) 0.003(3) -0.006(2)
C20 0.031(3) 0.061(3) 0.100(3) 0.011(2) 0.008(3) 0.003(2)
loop_
_atom_type_symbol
_atom_type_description
_atom_type_scat_dispersion_real
_atom_type_scat_dispersion_imag
_atom_type_scat_source
C C 0.0033 0.0016 'International Tables Vol C Tables 4.2.6.8 and 6.1.1.4'
H H 0.0000 0.0000 'International Tables Vol C Tables 4.2.6.8 and 6.1.1.4'
N N 0.0061 0.0033 'International Tables Vol C Tables 4.2.6.8 and 6.1.1.4'
O O 0.0106 0.0060 'International Tables Vol C Tables 4.2.6.8 and 6.1.1.4'
S S 0.1246 0.1234 'International Tables Vol C Tables 4.2.6.8 and 6.1.1.4'
Au Au -2.0133 8.8022 'International Tables Vol C Tables 4.2.6.8 and 6.1.1.4'
Ni Ni 0.3393 1.1124 'International Tables Vol C Tables 4.2.6.8 and 6.1.1.4'
loop_
_geom_angle_atom_site_label_1
_geom_angle_atom_site_label_2
_geom_angle_atom_site_label_3
_geom_angle
S2 Au1 S4 87.20(5)
S2 Au1 S1 91.26(5)
S4 Au1 S1 176.80(4)
S2 Au1 S3 177.64(4)
S4 Au1 S3 90.56(4)
S1 Au1 S3 91.01(4)
C2 S1 Au1 101.03(15)
C3 S2 Au1 101.10(16)
C6 S3 Au1 101.79(15)
C7 S4 Au1 101.37(15)
C13 N5 C9 121.6(4)
C13 N5 C14 119.2(4)
C9 N5 C14 119.1(4)
O1 N6 O2 123.6(5)
O1 N6 C18 118.4(5)
O2 N6 C18 117.9(5)
N1 C1 C2 177.7(5)
C3 C2 C1 121.6(4)
C3 C2 S1 122.7(3)
C1 C2 S1 115.7(3)
C2 C3 C4 124.1(4)
C2 C3 S2 123.5(3)
C4 C3 S2 112.4(4)
N2 C4 C3 176.9(6)
N3 C5 C6 178.2(5)
C7 C6 C5 122.3(4)
C7 C6 S3 122.5(3)
C5 C6 S3 115.2(3)
C6 C7 C8 121.5(4)
C6 C7 S4 123.7(3)
C8 C7 S4 114.7(3)
N4 C8 C7 178.2(5)
N5 C9 C10 120.1(5)
C9 C10 C11 118.8(5)
C12 C11 C10 119.8(5)
C13 C12 C11 119.0(5)
N5 C13 C12 120.7(5)
N5 C14 C15 111.9(3)
C16 C15 C20 118.4(4)
C16 C15 C14 120.4(4)
C20 C15 C14 121.1(4)
C15 C16 C17 121.1(4)
C18 C17 C16 118.5(4)
C17 C18 C19 122.6(4)
C17 C18 N6 118.5(4)
C19 C18 N6 118.9(4)
C18 C19 C20 118.1(5)
C19 C20 C15 121.3(4)
loop_
_geom_bond_atom_site_label_1
_geom_bond_atom_site_label_2
_geom_bond_distance
Au1 S2 2.2620(13)
Au1 S4 2.2690(12)
Au1 S1 2.2708(12)
Au1 S3 2.2712(12)
S1 C2 1.740(4)
S2 C3 1.732(4)
S3 C6 1.731(4)
S4 C7 1.729(4)
O1 N6 1.197(6)
O2 N6 1.198(6)
N1 C1 1.135(6)
N2 C4 1.125(6)
N3 C5 1.139(5)
N4 C8 1.140(5)
N5 C13 1.330(5)
N5 C9 1.332(5)
N5 C14 1.491(5)
N6 C18 1.487(6)
C1 C2 1.429(6)
C2 C3 1.343(6)
C3 C4 1.449(6)
C5 C6 1.437(6)
C6 C7 1.336(6)
C7 C8 1.442(6)
C9 C10 1.367(7)
C10 C11 1.381(8)
C11 C12 1.370(7)
C12 C13 1.358(6)
C14 C15 1.506(6)
C15 C16 1.372(6)
C15 C20 1.378(6)
C16 C17 1.384(6)
C17 C18 1.348(6)
C18 C19 1.367(6)
C19 C20 1.375(6)
