#------------------------------------------------------------------------------
#$Date: 2016-02-18 17:37:37 +0200 (Thu, 18 Feb 2016) $
#$Revision: 176729 $
#$URL: svn://www.crystallography.net/cod/cif/1/50/57/1505715.cif $
#------------------------------------------------------------------------------
#
# This file is available in the Crystallography Open Database (COD),
# http://www.crystallography.net/
#
# All data on this site have been placed in the public domain by the
# contributors.
#
data_1505715
loop_
_publ_author_name
'Ren, X. M.'
'Akutagawa, T.'
'Noro, S.'
'Nishihara, S.'
'Nakamura, T.'
'Yoshida, Y.'
'Inoue, K.'
_publ_section_title
;
 Structural and magnetic investigations for the doping effect of
 nonmagnetic impurity on the spin-Peierls-like transition in a
 quasi-one-dimensional magnet: 1-(4'-nitrobenzyl)pyridinium
 bis(maleonitriledithiolato)nickelate.
;
_journal_issue                   15
_journal_name_full               'The journal of physical chemistry. B'
_journal_page_first              7671
_journal_page_last               7677
_journal_paper_doi               10.1021/jp0556106
_journal_volume                  110
_journal_year                    2006
_chemical_formula_sum            'C20 H11 Au0.49 N6 Ni0.51 O2 S4'
_chemical_formula_weight         621.79
_chemical_name_systematic
; 
 ? 
;
_space_group_IT_number           14
_symmetry_cell_setting           monoclinic
_symmetry_space_group_name_Hall  '-P 2ybc'
_symmetry_space_group_name_H-M   'P 1 21/c 1'
_atom_sites_solution_hydrogens   geom
_atom_sites_solution_primary     direct
_atom_sites_solution_secondary   difmap
_audit_creation_method           SHELXL-97
_cell_angle_alpha                90.00
_cell_angle_beta                 103.15(3)
_cell_angle_gamma                90.00
_cell_formula_units_Z            4
_cell_length_a                   12.176(2)
_cell_length_b                   26.582(5)
_cell_length_c                   7.2458(14)
_cell_measurement_temperature    273(2)
_cell_volume                     2283.7(8)
_computing_structure_refinement  'SHELXL-97 (Sheldrick, 1997)'
_computing_structure_solution    'SHELXS-97 (Sheldrick, 1990)'
_diffrn_ambient_temperature      273(2)
_diffrn_measured_fraction_theta_full 0.998
_diffrn_measured_fraction_theta_max 0.998
_diffrn_radiation_monochromator  graphite
_diffrn_radiation_source         'fine-focus sealed tube'
_diffrn_radiation_type           MoK\a
_diffrn_radiation_wavelength     0.71073
_diffrn_reflns_av_R_equivalents  0.0916
_diffrn_reflns_av_sigmaI/netI    0.0656
_diffrn_reflns_limit_h_max       15
_diffrn_reflns_limit_h_min       -15
_diffrn_reflns_limit_k_max       33
_diffrn_reflns_limit_k_min       -34
_diffrn_reflns_limit_l_max       9
_diffrn_reflns_limit_l_min       -8
_diffrn_reflns_number            33608
_diffrn_reflns_theta_full        27.48
_diffrn_reflns_theta_max         27.48
_diffrn_reflns_theta_min         3.07
_exptl_absorpt_coefficient_mu    3.977
_exptl_crystal_density_diffrn    1.809
_exptl_crystal_density_method    'not measured'
_exptl_crystal_F_000             1224
_refine_diff_density_max         1.279
_refine_diff_density_min         -1.274
_refine_diff_density_rms         0.108
_refine_ls_extinction_method     none
_refine_ls_goodness_of_fit_ref   1.089
_refine_ls_hydrogen_treatment    mixed
_refine_ls_matrix_type           full
_refine_ls_number_parameters     299
_refine_ls_number_reflns         5232
_refine_ls_number_restraints     0
_refine_ls_restrained_S_all      1.089
_refine_ls_R_factor_all          0.0751
_refine_ls_R_factor_gt           0.0465
_refine_ls_shift/su_max          0.001
_refine_ls_shift/su_mean         0.000
_refine_ls_structure_factor_coef Fsqd
_refine_ls_weighting_details
'calc w=1/[\s^2^(Fo^2^)+(0.0344P)^2^+0.4383P] where P=(Fo^2^+2Fc^2^)/3'
_refine_ls_weighting_scheme      calc
_refine_ls_wR_factor_gt          0.0930
_refine_ls_wR_factor_ref         0.1020
_reflns_number_gt                3507
_reflns_number_total             5232
_reflns_threshold_expression     >2sigma(I)
_cod_data_source_file            jp0556106si20060207_063811.cif
_cod_data_source_block           x=0.49_at_273_K
_cod_depositor_comments
;
The following automatic conversions were performed:

'_symmetry_cell_setting' value 'Monoclinic' changed to 'monoclinic'
according to /home/saulius/struct/CIF-dictionaries/cif_core.dic
dictionary named 'cif_core.dic' version 2.4.1 from 2010-06-29.

Automatic conversion script
Id: cif_fix_values 1715 2011-07-08 13:25:40Z adriana 
;
_cod_original_sg_symbol_H-M      P2(1)/c
_cod_database_code               1505715
loop_
_symmetry_equiv_pos_as_xyz
'x, y, z'
'-x, y+1/2, -z+1/2'
'-x, -y, -z'
'x, -y-1/2, z-1/2'
loop_
_atom_site_label
_atom_site_type_symbol
_atom_site_fract_x
_atom_site_fract_y
_atom_site_fract_z
_atom_site_U_iso_or_equiv
_atom_site_adp_type
_atom_site_occupancy
_atom_site_symmetry_multiplicity
_atom_site_calc_flag
_atom_site_refinement_flags
Au1 Au -0.23187(3) 0.225438(10) -0.45093(4) 0.04474(12) Uani 0.4883(15) 1 d P
Ni1 Ni -0.23187(3) 0.225438(10) -0.45093(4) 0.04474(12) Uani 0.5117(15) 1 d P
S1 S -0.34489(12) 0.16045(5) -0.54974(18) 0.0557(4) Uani 1 1 d .
S2 S -0.08671(12) 0.17511(5) -0.34060(19) 0.0595(4) Uani 1 1 d .
S3 S -0.37339(12) 0.27893(4) -0.55725(19) 0.0519(4) Uani 1 1 d .
S4 S -0.11245(12) 0.28937(5) -0.36302(19) 0.0552(4) Uani 1 1 d .
O1 O 0.1686(5) 0.16510(17) -0.0132(8) 0.1197(19) Uani 1 1 d .
O2 O 0.3470(5) 0.16268(17) 0.0585(8) 0.1099(18) Uani 1 1 d .
N1 N -0.3331(5) 0.02379(18) -0.6175(7) 0.0802(15) Uani 1 1 d .
N2 N 0.0084(5) 0.04691(19) -0.3461(7) 0.0882(17) Uani 1 1 d .
N3 N -0.4350(5) 0.41321(17) -0.6286(7) 0.0766(14) Uani 1 1 d .
N4 N -0.0946(4) 0.42613(17) -0.3848(7) 0.0743(14) Uani 1 1 d .
N5 N 0.2766(4) 0.42601(14) -0.1127(6) 0.0514(10) Uani 1 1 d .
N6 N 0.2589(6) 0.18547(19) 0.0249(7) 0.0727(15) Uani 1 1 d .
C1 C -0.2958(5) 0.0619(2) -0.5629(7) 0.0577(14) Uani 1 1 d .
C2 C -0.2519(5) 0.11041(18) -0.5005(7) 0.0514(13) Uani 1 1 d .
C3 C -0.1413(5) 0.11708(18) -0.4113(6) 0.0530(13) Uani 1 1 d .
C4 C -0.0615(5) 0.0769(2) -0.3756(7) 0.0624(15) Uani 1 1 d .
C5 C -0.3778(5) 0.37978(19) -0.5794(7) 0.0566(13) Uani 1 1 d .
C6 C -0.3073(5) 0.33671(17) -0.5191(7) 0.0492(12) Uani 1 1 d .
C7 C -0.1965(5) 0.34096(17) -0.4371(6) 0.0473(12) Uani 1 1 d .
C8 C -0.1409(5) 0.3889(2) -0.4093(7) 0.0553(13) Uani 1 1 d .
C9 C 0.3756(5) 0.43388(19) -0.1600(9) 0.0681(16) Uani 1 1 d .
H9A H 0.4423 0.4228 -0.0806 0.082 Uiso 1 1 calc R
C10 C 0.3782(7) 0.4582(2) -0.3247(10) 0.085(2) Uani 1 1 d .
H10A H 0.4467 0.4645 -0.3569 0.102 Uiso 1 1 calc R
C11 C 0.2781(8) 0.4733(2) -0.4433(9) 0.083(2) Uani 1 1 d .
H11A H 0.2785 0.4888 -0.5582 0.100 Uiso 1 1 calc R
C12 C 0.1795(7) 0.4653(2) -0.3912(9) 0.0823(19) Uani 1 1 d .
H12A H 0.1118 0.4762 -0.4682 0.099 Uiso 1 1 calc R
C13 C 0.1803(5) 0.44132(19) -0.2253(8) 0.0649(15) Uani 1 1 d .
H13A H 0.1126 0.4355 -0.1899 0.078 Uiso 1 1 calc R
C14 C 0.2760(5) 0.40009(19) 0.0680(7) 0.0601(14) Uani 1 1 d .
H14A H 0.2112 0.4113 0.1138 0.072 Uiso 1 1 calc R
H14B H 0.3434 0.4093 0.1618 0.072 Uiso 1 1 calc R
C15 C 0.2716(4) 0.34369(18) 0.0465(6) 0.0491(12) Uani 1 1 d .
C16 C 0.3679(5) 0.3154(2) 0.0891(7) 0.0608(14) Uani 1 1 d .
H16A H 0.4373 0.3315 0.1251 0.073 Uiso 1 1 calc R
C17 C 0.3646(5) 0.2639(2) 0.0800(8) 0.0616(15) Uani 1 1 d .
H17A H 0.4307 0.2451 0.1097 0.074 Uiso 1 1 calc R
C18 C 0.2633(5) 0.24101(19) 0.0271(7) 0.0502(13) Uani 1 1 d .
C19 C 0.1650(5) 0.2673(2) -0.0189(8) 0.0651(15) Uani 1 1 d .
H19A H 0.0961 0.2508 -0.0555 0.078 Uiso 1 1 calc R
C20 C 0.1701(5) 0.3191(2) -0.0099(8) 0.0641(14) Uani 1 1 d .
H20A H 0.1038 0.3377 -0.0424 0.077 Uiso 1 1 calc R
loop_
_atom_site_aniso_label
_atom_site_aniso_U_11
_atom_site_aniso_U_22
_atom_site_aniso_U_33
_atom_site_aniso_U_23
_atom_site_aniso_U_13
_atom_site_aniso_U_12
Au1 0.0429(2) 0.04177(17) 0.04906(19) 0.00342(12) 0.00933(14) -0.00082(13)
Ni1 0.0429(2) 0.04177(17) 0.04906(19) 0.00342(12) 0.00933(14) -0.00082(13)
S1 0.0482(9) 0.0547(7) 0.0633(8) 0.0034(6) 0.0111(7) -0.0007(6)
S2 0.0471(9) 0.0638(8) 0.0646(8) 0.0003(6) 0.0065(7) 0.0017(6)
S3 0.0431(9) 0.0491(7) 0.0599(8) 0.0022(6) 0.0039(6) -0.0020(6)
S4 0.0440(9) 0.0551(7) 0.0620(8) 0.0036(6) 0.0022(7) -0.0045(6)
O1 0.111(5) 0.061(3) 0.166(5) 0.004(3) -0.010(4) -0.021(3)
O2 0.107(5) 0.060(3) 0.157(5) 0.017(3) 0.019(4) 0.023(3)
N1 0.091(4) 0.055(3) 0.089(3) 0.002(3) 0.011(3) -0.007(3)
N2 0.091(5) 0.077(3) 0.091(4) -0.003(3) 0.009(3) 0.027(3)
N3 0.069(4) 0.053(3) 0.103(4) -0.001(3) 0.010(3) 0.010(3)
N4 0.070(4) 0.059(3) 0.089(3) -0.002(3) 0.007(3) -0.013(3)
N5 0.047(3) 0.044(2) 0.060(3) -0.0021(18) 0.007(2) 0.0012(19)
N6 0.094(5) 0.056(3) 0.066(3) 0.007(2) 0.014(3) 0.000(3)
C1 0.061(4) 0.052(3) 0.061(3) 0.006(3) 0.016(3) 0.003(3)
C2 0.056(4) 0.049(3) 0.051(3) 0.001(2) 0.016(3) 0.002(2)
C3 0.063(4) 0.053(3) 0.044(3) 0.005(2) 0.016(3) 0.008(3)
C4 0.063(4) 0.065(4) 0.058(3) 0.004(3) 0.013(3) 0.009(3)
C5 0.051(4) 0.047(3) 0.071(3) -0.004(3) 0.013(3) -0.002(3)
C6 0.049(4) 0.050(3) 0.052(3) 0.000(2) 0.017(3) 0.000(2)
C7 0.054(4) 0.048(3) 0.044(3) 0.004(2) 0.018(3) 0.004(2)
C8 0.051(4) 0.055(3) 0.059(3) -0.001(2) 0.011(3) -0.005(3)
C9 0.050(4) 0.064(3) 0.095(4) 0.003(3) 0.025(3) 0.007(3)
C10 0.096(6) 0.067(4) 0.106(5) 0.006(4) 0.055(5) 0.000(4)
C11 0.133(8) 0.053(3) 0.067(4) 0.001(3) 0.029(5) -0.007(4)
C12 0.092(6) 0.058(4) 0.082(4) 0.014(3) -0.011(4) -0.005(3)
C13 0.042(4) 0.058(3) 0.084(4) 0.006(3) -0.007(3) -0.003(3)
C14 0.068(4) 0.058(3) 0.054(3) -0.003(2) 0.014(3) 0.001(3)
C15 0.046(3) 0.053(3) 0.049(3) 0.004(2) 0.012(2) 0.001(2)
C16 0.035(3) 0.065(3) 0.078(4) 0.004(3) 0.002(3) -0.004(3)
C17 0.043(4) 0.065(4) 0.074(4) 0.010(3) 0.008(3) 0.014(3)
C18 0.052(4) 0.051(3) 0.047(3) 0.004(2) 0.009(3) -0.002(2)
C19 0.038(4) 0.066(4) 0.086(4) 0.008(3) 0.004(3) -0.008(3)
C20 0.044(4) 0.058(3) 0.088(4) 0.007(3) 0.010(3) 0.006(3)
loop_
_atom_type_symbol
_atom_type_description
_atom_type_scat_dispersion_real
_atom_type_scat_dispersion_imag
_atom_type_scat_source
C C 0.0033 0.0016 'International Tables Vol C Tables 4.2.6.8 and 6.1.1.4'
H H 0.0000 0.0000 'International Tables Vol C Tables 4.2.6.8 and 6.1.1.4'
N N 0.0061 0.0033 'International Tables Vol C Tables 4.2.6.8 and 6.1.1.4'
O O 0.0106 0.0060 'International Tables Vol C Tables 4.2.6.8 and 6.1.1.4'
S S 0.1246 0.1234 'International Tables Vol C Tables 4.2.6.8 and 6.1.1.4'
Au Au -2.0133 8.8022 'International Tables Vol C Tables 4.2.6.8 and 6.1.1.4'
Ni Ni 0.3393 1.1124 'International Tables Vol C Tables 4.2.6.8 and 6.1.1.4'
loop_
_geom_angle_atom_site_label_1
_geom_angle_atom_site_label_2
_geom_angle_atom_site_label_3
_geom_angle
S2 Au1 S1 91.81(6)
S2 Au1 S3 177.55(5)
S1 Au1 S3 90.64(5)
S2 Au1 S4 86.69(6)
S1 Au1 S4 176.77(5)
S3 Au1 S4 90.87(5)
C2 S1 Au1 101.71(19)
C3 S2 Au1 102.3(2)
C6 S3 Au1 102.48(19)
C7 S4 Au1 102.42(19)
C13 N5 C9 120.9(5)
C13 N5 C14 120.2(5)
C9 N5 C14 118.9(5)
O1 N6 O2 123.0(6)
O1 N6 C18 118.8(6)
O2 N6 C18 118.1(6)
N1 C1 C2 177.9(6)
C3 C2 C1 121.6(5)
C3 C2 S1 121.7(4)
C1 C2 S1 116.6(4)
C2 C3 C4 123.1(5)
C2 C3 S2 122.2(4)
C4 C3 S2 114.7(5)
N2 C4 C3 175.4(7)
N3 C5 C6 178.7(6)
C7 C6 C5 122.4(4)
C7 C6 S3 121.9(4)
C5 C6 S3 115.8(4)
C6 C7 C8 121.8(4)
C6 C7 S4 122.3(4)
C8 C7 S4 115.9(4)
N4 C8 C7 178.1(7)
N5 C9 C10 119.9(6)
C9 C10 C11 119.3(6)
C12 C11 C10 119.6(6)
C11 C12 C13 119.4(7)
N5 C13 C12 120.9(6)
N5 C14 C15 112.2(4)
C16 C15 C20 118.2(5)
C16 C15 C14 121.0(5)
C20 C15 C14 120.7(5)
C15 C16 C17 121.6(5)
C18 C17 C16 118.6(5)
C17 C18 C19 122.3(5)
C17 C18 N6 118.8(5)
C19 C18 N6 118.9(5)
C18 C19 C20 118.2(5)
C15 C20 C19 121.1(5)
loop_
_geom_bond_atom_site_label_1
_geom_bond_atom_site_label_2
_geom_bond_distance
Au1 S2 2.2158(15)
Au1 S1 2.2231(14)
Au1 S3 2.2317(14)
Au1 S4 2.2331(14)
S1 C2 1.731(5)
S2 C3 1.711(5)
S3 C6 1.727(5)
S4 C7 1.722(5)
O1 N6 1.200(7)
O2 N6 1.208(7)
N1 C1 1.144(6)
N2 C4 1.150(7)
N3 C5 1.136(7)
N4 C8 1.132(6)
N5 C13 1.331(6)
N5 C9 1.342(6)
N5 C14 1.481(6)
N6 C18 1.477(7)
C1 C2 1.429(7)
C2 C3 1.366(7)
C3 C4 1.428(7)
C5 C6 1.438(7)
C6 C7 1.349(7)
C7 C8 1.436(7)
C9 C10 1.364(8)
C10 C11 1.382(9)
C11 C12 1.356(8)
C12 C13 1.359(7)
C14 C15 1.507(7)
C15 C16 1.368(7)
C15 C20 1.376(7)
C16 C17 1.370(7)
C17 C18 1.351(7)
C18 C19 1.360(7)
C19 C20 1.380(7)
