#------------------------------------------------------------------------------
#$Date: 2016-02-18 17:37:37 +0200 (Thu, 18 Feb 2016) $
#$Revision: 176729 $
#$URL: svn://www.crystallography.net/cod/cif/1/51/34/1513486.cif $
#------------------------------------------------------------------------------
#
# This file is available in the Crystallography Open Database (COD),
# http://www.crystallography.net/
#
# All data on this site have been placed in the public domain by the
# contributors.
#
data_1513486
loop_
_publ_author_name
'Lin, Chia-Chi'
'Hsieh, Tsung-Han'
'Liao, Pen-Yuan'
'Liao, Zhen-Yuan'
'Chang, Chih-Wei'
'Shih, Yu-Chiao'
'Yeh, Wen-Hsiung'
'Chien, Tun-Cheng'
_publ_section_title
;
 Practical Synthesis of N-Substituted Cyanamides via Tiemann Rearrangement
 of Amidoximes.
;
_journal_issue                   3
_journal_name_full               'Organic letters'
_journal_page_first              892
_journal_page_last               895
_journal_paper_doi               10.1021/ol403645y
_journal_volume                  16
_journal_year                    2014
_chemical_formula_moiety         'C14 H12 N4 O4 S'
_chemical_formula_sum            'C14 H12 N4 O4 S'
_chemical_formula_weight         332.34
_chemical_name_systematic
;
 ?
;
_space_group_IT_number           15
_symmetry_cell_setting           monoclinic
_symmetry_space_group_name_Hall  '-C 2yc'
_symmetry_space_group_name_H-M   'C 1 2/c 1'
_atom_sites_solution_hydrogens   geom
_atom_sites_solution_primary     direct
_atom_sites_solution_secondary   difmap
_audit_creation_method           SHELXL-97
_cell_angle_alpha                90.00
_cell_angle_beta                 102.188(12)
_cell_angle_gamma                90.00
_cell_formula_units_Z            8
_cell_length_a                   26.815(7)
_cell_length_b                   6.466(2)
_cell_length_c                   17.138(4)
_cell_measurement_reflns_used    0
_cell_measurement_temperature    200(2)
_cell_measurement_theta_max      0
_cell_measurement_theta_min      0
_cell_volume                     2904.5(14)
_computing_molecular_graphics    'Ortep-3 for Windows (Farrugia, 1997)'
_computing_publication_material  'WinGX publication routines (Farrugia, 1999)'
_computing_structure_refinement  'SHELXL-97 (Sheldrick, 1997)'
_computing_structure_solution    'SHELXS-86 (Sheldrick, 1986)'
_diffrn_ambient_temperature      200(2)
_diffrn_measured_fraction_theta_full 0.972
_diffrn_measured_fraction_theta_max 0.972
_diffrn_radiation_monochromator  graphite
_diffrn_radiation_source         'fine-focus sealed tube'
_diffrn_radiation_type           MoK\a
_diffrn_radiation_wavelength     0.71073
_diffrn_reflns_av_R_equivalents  0.1203
_diffrn_reflns_av_sigmaI/netI    0.1815
_diffrn_reflns_limit_h_max       30
_diffrn_reflns_limit_h_min       -32
_diffrn_reflns_limit_k_max       7
_diffrn_reflns_limit_k_min       -7
_diffrn_reflns_limit_l_max       19
_diffrn_reflns_limit_l_min       -20
_diffrn_reflns_number            7147
_diffrn_reflns_theta_full        25.24
_diffrn_reflns_theta_max         25.24
_diffrn_reflns_theta_min         1.55
_exptl_absorpt_coefficient_mu    0.250
_exptl_absorpt_correction_T_max  0.9950
_exptl_absorpt_correction_T_min  0.8623
_exptl_absorpt_correction_type   multi-scan
_exptl_crystal_colour            colorless
_exptl_crystal_density_diffrn    1.520
_exptl_crystal_density_method    'not measured'
_exptl_crystal_description       prism
_exptl_crystal_F_000             1376
_exptl_crystal_size_max          0.61
_exptl_crystal_size_mid          0.07
_exptl_crystal_size_min          0.02
_refine_diff_density_max         0.495
_refine_diff_density_min         -0.466
_refine_diff_density_rms         0.147
_refine_ls_extinction_method     none
_refine_ls_goodness_of_fit_ref   0.960
_refine_ls_hydrogen_treatment    constr
_refine_ls_matrix_type           full
_refine_ls_number_parameters     208
_refine_ls_number_reflns         2559
_refine_ls_number_restraints     0
_refine_ls_restrained_S_all      0.960
_refine_ls_R_factor_all          0.1655
_refine_ls_R_factor_gt           0.0648
_refine_ls_shift/su_max          0.000
_refine_ls_shift/su_mean         0.000
_refine_ls_structure_factor_coef Fsqd
_refine_ls_weighting_details
'calc w=1/[\s^2^(Fo^2^)+(0.1003P)^2^+0.0000P] where P=(Fo^2^+2Fc^2^)/3'
_refine_ls_weighting_scheme      calc
_refine_ls_wR_factor_gt          0.1490
_refine_ls_wR_factor_ref         0.2212
_reflns_number_gt                1202
_reflns_number_total             2559
_reflns_threshold_expression     >2sigma(I)
_cod_data_source_file            ol403645y_si_006.cif
_cod_data_source_block           ch13986
_cod_original_sg_symbol_H-M      'C 2/c'
_cod_database_code               1513486
loop_
_symmetry_equiv_pos_as_xyz
'x, y, z'
'-x, y, -z+1/2'
'x+1/2, y+1/2, z'
'-x+1/2, y+1/2, -z+1/2'
'-x, -y, -z'
'x, -y, z-1/2'
'-x+1/2, -y+1/2, -z'
'x+1/2, -y+1/2, z-1/2'
loop_
_atom_site_label
_atom_site_type_symbol
_atom_site_fract_x
_atom_site_fract_y
_atom_site_fract_z
_atom_site_U_iso_or_equiv
_atom_site_adp_type
_atom_site_occupancy
_atom_site_symmetry_multiplicity
_atom_site_calc_flag
_atom_site_refinement_flags
C1 C 0.6151(2) 0.9706(11) 0.1608(4) 0.0250(17) Uani 1 1 d .
C2 C 0.6131(2) 1.1714(12) 0.1836(4) 0.0262(17) Uani 1 1 d .
H2 H 0.6434 1.2418 0.2084 0.031 Uiso 1 1 calc R
C3 C 0.5667(3) 1.2720(12) 0.1704(4) 0.0351(19) Uani 1 1 d .
H3 H 0.5653 1.4126 0.1860 0.042 Uiso 1 1 calc R
C4 C 0.5221(3) 1.1715(14) 0.1349(4) 0.039(2) Uani 1 1 d .
C5 C 0.4716(3) 1.2855(14) 0.1212(5) 0.063(3) Uani 1 1 d .
H5A H 0.4441 1.1923 0.0958 0.094 Uiso 1 1 calc R
H5B H 0.4729 1.4049 0.0864 0.094 Uiso 1 1 calc R
H5C H 0.4652 1.3330 0.1725 0.094 Uiso 1 1 calc R
C6 C 0.5247(3) 0.9675(14) 0.1117(4) 0.041(2) Uani 1 1 d .
H6 H 0.4945 0.8970 0.0866 0.049 Uiso 1 1 calc R
C7 C 0.5709(3) 0.8663(12) 0.1250(4) 0.0322(18) Uani 1 1 d .
H7 H 0.5725 0.7257 0.1097 0.039 Uiso 1 1 calc R
C8 C 0.7146(2) 1.0355(11) 0.0614(4) 0.0205(16) Uani 1 1 d .
C9 C 0.6902(2) 0.8360(11) -0.0412(3) 0.0200(15) Uani 1 1 d .
C10 C 0.6811(2) 0.7487(11) -0.1168(4) 0.0249(17) Uani 1 1 d .
H10 H 0.6915 0.8168 -0.1597 0.030 Uiso 1 1 calc R
C11 C 0.6563(2) 0.5600(11) -0.1280(4) 0.0232(17) Uani 1 1 d .
H11 H 0.6495 0.4972 -0.1793 0.028 Uiso 1 1 calc R
C12 C 0.6416(2) 0.4632(11) -0.0652(4) 0.0227(16) Uani 1 1 d .
C13 C 0.6505(2) 0.5402(10) 0.0124(4) 0.0224(16) Uani 1 1 d .
H13 H 0.6408 0.4688 0.0554 0.027 Uiso 1 1 calc R
C14 C 0.6749(2) 0.7318(11) 0.0212(3) 0.0206(16) Uani 1 1 d .
N1 N 0.69232(18) 0.8601(9) 0.0892(3) 0.0211(13) Uani 1 1 d .
N2 N 0.73253(19) 1.1953(9) 0.1070(3) 0.0263(15) Uani 1 1 d .
H2A H 0.7454 1.3022 0.0863 0.032 Uiso 1 1 calc R
H2B H 0.7316 1.1947 0.1580 0.032 Uiso 1 1 calc R
N3 N 0.71435(19) 1.0222(8) -0.0161(3) 0.0218(14) Uani 1 1 d .
N4 N 0.6146(2) 0.2671(9) -0.0795(3) 0.0274(15) Uani 1 1 d .
O1 O 0.71058(16) 0.9511(7) 0.2327(2) 0.0274(12) Uani 1 1 d .
O2 O 0.66584(16) 0.6236(7) 0.1864(2) 0.0259(12) Uani 1 1 d .
O3 O 0.6068(2) 0.1930(8) -0.1466(3) 0.0461(15) Uani 1 1 d .
O4 O 0.60007(17) 0.1840(8) -0.0236(3) 0.0359(13) Uani 1 1 d .
S1 S 0.67350(6) 0.8397(3) 0.17600(9) 0.0232(5) Uani 1 1 d .
loop_
_atom_site_aniso_label
_atom_site_aniso_U_11
_atom_site_aniso_U_22
_atom_site_aniso_U_33
_atom_site_aniso_U_23
_atom_site_aniso_U_13
_atom_site_aniso_U_12
C1 0.020(4) 0.028(5) 0.028(4) -0.003(3) 0.009(3) 0.001(3)
C2 0.019(4) 0.034(5) 0.023(3) 0.000(3) -0.002(3) 0.004(3)
C3 0.037(5) 0.026(5) 0.045(4) 0.002(4) 0.013(4) 0.007(4)
C4 0.030(4) 0.043(6) 0.047(5) 0.009(4) 0.014(4) 0.009(4)
C5 0.029(5) 0.072(8) 0.084(7) 0.003(6) 0.004(5) 0.016(5)
C6 0.017(4) 0.054(6) 0.049(5) 0.000(5) 0.002(4) 0.000(4)
C7 0.024(4) 0.027(5) 0.047(4) -0.006(4) 0.010(3) -0.005(4)
C8 0.021(4) 0.022(4) 0.019(3) -0.002(3) 0.004(3) 0.004(3)
C9 0.020(4) 0.015(4) 0.026(3) 0.009(3) 0.008(3) 0.004(3)
C10 0.029(4) 0.026(5) 0.022(3) 0.004(3) 0.012(3) 0.006(3)
C11 0.030(4) 0.020(5) 0.019(3) 0.002(3) 0.004(3) 0.003(3)
C12 0.016(4) 0.023(5) 0.029(4) 0.000(3) 0.005(3) -0.003(3)
C13 0.023(4) 0.018(4) 0.027(4) 0.004(3) 0.007(3) 0.002(3)
C14 0.014(3) 0.028(5) 0.020(3) -0.001(3) 0.004(3) 0.009(3)
N1 0.021(3) 0.024(4) 0.019(3) -0.007(3) 0.007(2) -0.003(3)
N2 0.031(3) 0.023(4) 0.028(3) -0.002(3) 0.013(3) -0.008(3)
N3 0.020(3) 0.025(4) 0.021(3) 0.003(3) 0.006(2) -0.003(3)
N4 0.022(3) 0.026(4) 0.033(3) 0.003(3) 0.004(3) 0.000(3)
O1 0.024(3) 0.035(3) 0.021(2) -0.006(2) -0.002(2) -0.004(2)
O2 0.034(3) 0.021(3) 0.025(2) 0.008(2) 0.012(2) 0.002(2)
O3 0.061(4) 0.042(4) 0.032(3) -0.012(3) 0.005(3) -0.018(3)
O4 0.037(3) 0.031(4) 0.041(3) -0.002(3) 0.012(3) -0.011(3)
S1 0.0217(9) 0.0290(12) 0.0190(8) 0.0001(8) 0.0047(7) 0.0008(8)
loop_
_atom_type_symbol
_atom_type_description
_atom_type_scat_dispersion_real
_atom_type_scat_dispersion_imag
_atom_type_scat_source
C C 0.0033 0.0016 'International Tables Vol C Tables 4.2.6.8 and 6.1.1.4'
H H 0.0000 0.0000 'International Tables Vol C Tables 4.2.6.8 and 6.1.1.4'
N N 0.0061 0.0033 'International Tables Vol C Tables 4.2.6.8 and 6.1.1.4'
O O 0.0106 0.0060 'International Tables Vol C Tables 4.2.6.8 and 6.1.1.4'
S S 0.1246 0.1234 'International Tables Vol C Tables 4.2.6.8 and 6.1.1.4'
loop_
_geom_angle_atom_site_label_1
_geom_angle_atom_site_label_2
_geom_angle_atom_site_label_3
_geom_angle
C2 C1 C7 120.6(7)
C2 C1 S1 120.4(5)
C7 C1 S1 119.0(6)
C1 C2 C3 119.4(7)
C1 C2 H2 120.3
C3 C2 H2 120.3
C2 C3 C4 121.1(8)
C2 C3 H3 119.4
C4 C3 H3 119.4
C6 C4 C3 118.8(7)
C6 C4 C5 121.1(7)
C3 C4 C5 120.0(8)
C4 C5 H5A 109.5
C4 C5 H5B 109.5
H5A C5 H5B 109.5
C4 C5 H5C 109.5
H5A C5 H5C 109.5
H5B C5 H5C 109.5
C7 C6 C4 120.3(7)
C7 C6 H6 119.9
C4 C6 H6 119.9
C6 C7 C1 119.8(8)
C6 C7 H7 120.1
C1 C7 H7 120.1
N2 C8 N3 124.4(6)
N2 C8 N1 123.7(5)
N3 C8 N1 111.9(5)
C10 C9 N3 128.4(6)
C10 C9 C14 119.8(6)
N3 C9 C14 111.9(6)
C11 C10 C9 118.3(6)
C11 C10 H10 120.8
C9 C10 H10 120.8
C12 C11 C10 120.1(6)
C12 C11 H11 119.9
C10 C11 H11 119.9
C11 C12 C13 124.5(6)
C11 C12 N4 118.7(6)
C13 C12 N4 116.8(6)
C12 C13 C14 113.8(6)
C12 C13 H13 123.1
C14 C13 H13 123.1
C13 C14 C9 123.5(6)
C13 C14 N1 132.1(6)
C9 C14 N1 104.3(6)
C8 N1 C14 106.3(5)
C8 N1 S1 126.3(4)
C14 N1 S1 124.9(4)
C8 N2 H2A 120.0
C8 N2 H2B 120.0
H2A N2 H2B 120.0
C8 N3 C9 105.6(5)
O3 N4 O4 122.9(6)
O3 N4 C12 118.6(6)
O4 N4 C12 118.5(6)
O2 S1 O1 120.4(3)
O2 S1 N1 105.4(3)
O1 S1 N1 105.5(3)
O2 S1 C1 110.1(3)
O1 S1 C1 109.3(3)
N1 S1 C1 104.9(3)
loop_
_geom_bond_atom_site_label_1
_geom_bond_atom_site_label_2
_geom_bond_distance
C1 C2 1.360(9)
C1 C7 1.389(9)
C1 S1 1.751(7)
C2 C3 1.381(9)
C2 H2 0.9500
C3 C4 1.385(10)
C3 H3 0.9500
C4 C6 1.383(11)
C4 C5 1.514(10)
C5 H5A 0.9800
C5 H5B 0.9800
C5 H5C 0.9800
C6 C7 1.376(9)
C6 H6 0.9500
C7 H7 0.9500
C8 N2 1.323(8)
C8 N3 1.330(8)
C8 N1 1.411(8)
C9 C10 1.386(8)
C9 N3 1.391(8)
C9 C14 1.398(9)
C10 C11 1.384(9)
C10 H10 0.9500
C11 C12 1.373(9)
C11 H11 0.9500
C12 C13 1.393(9)
C12 N4 1.455(8)
C13 C14 1.394(9)
C13 H13 0.9500
C14 N1 1.426(7)
N1 S1 1.674(5)
N2 H2A 0.8800
N2 H2B 0.8800
N4 O3 1.222(6)
N4 O4 1.230(7)
O1 S1 1.430(4)
O2 S1 1.429(5)
