#------------------------------------------------------------------------------
#$Date: 2016-02-18 17:37:37 +0200 (Thu, 18 Feb 2016) $
#$Revision: 176729 $
#$URL: svn://www.crystallography.net/cod/cif/1/51/74/1517493.cif $
#------------------------------------------------------------------------------
#
# This file is available in the Crystallography Open Database (COD),
# http://www.crystallography.net/
#
# All data on this site have been placed in the public domain by the
# contributors.
#
data_1517493
loop_
_publ_author_name
'Bao, Hongli'
'Bayeh, Liela'
'Tambar, Uttam K.'
_publ_section_title
;
 Regioselective and Diastereoselective Aminoarylation of 1,3-Dienes.
;
_journal_issue                   12
_journal_name_full
'Chemical science (Royal Society of Chemistry : 2010)'
_journal_page_first              4863
_journal_page_last               4867
_journal_paper_doi               10.1039/C4SC01152J
_journal_volume                  5
_journal_year                    2014
_chemical_formula_moiety         'C18 H19 N O2 S'
_chemical_formula_sum            'C18 H19 N O2 S'
_chemical_formula_weight         313.40
_chemical_name_systematic
;
 ?
;
_space_group_crystal_system      monoclinic
_space_group_IT_number           14
_space_group_name_Hall           '-P 2yn'
_space_group_name_H-M_alt        'P 1 21/n 1'
_symmetry_space_group_name_Hall  '-P 2yn'
_symmetry_space_group_name_H-M   'P 1 21/n 1'
_atom_sites_solution_hydrogens   mixed
_audit_creation_method           SHELXL-2013
_cell_angle_alpha                90
_cell_angle_beta                 92.736(2)
_cell_angle_gamma                90
_cell_formula_units_Z            4
_cell_length_a                   5.65210(10)
_cell_length_b                   23.6399(4)
_cell_length_c                   11.7535(2)
_cell_measurement_reflns_used    3504
_cell_measurement_temperature    133(2)
_cell_measurement_theta_max      133.0
_cell_measurement_theta_min      6.7
_cell_volume                     1568.65(5)
_computing_cell_refinement
'CrysAlisPro V 1.171.37.31, Agilent Technologies'
_computing_data_collection
'CrysAlisPro V 1.171.37.31, Agilent Technologies'
_computing_data_reduction
'CrysAlisPro V 1.171.37.31, Agilent Technologies'
_computing_molecular_graphics    'XP SHELXTL/PC, Siemens Analytical'
_computing_publication_material  'XL SHELXTL/PC, Siemens Analytical'
_computing_structure_refinement  'Shelxl-2013, Sheldrick, G. M.'
_computing_structure_solution
;

SUPERFLIP.  Palatinus, L. and Chapuis, G., J. Appl. Cryst. 40, 786-790.
;
_diffrn_ambient_temperature      133(2)
_diffrn_measured_fraction_theta_full 0.992
_diffrn_measured_fraction_theta_max 0.964
_diffrn_measurement_device_type  'Agilent SuperNova, Dual, AtlasS2'
_diffrn_measurement_method       \w-scans
_diffrn_radiation_type           CuK\a
_diffrn_radiation_wavelength     1.54184
_diffrn_reflns_av_R_equivalents  0.0206
_diffrn_reflns_av_unetI/netI     0.0272
_diffrn_reflns_Laue_measured_fraction_full 0.992
_diffrn_reflns_Laue_measured_fraction_max 0.964
_diffrn_reflns_limit_h_max       6
_diffrn_reflns_limit_h_min       -6
_diffrn_reflns_limit_k_max       29
_diffrn_reflns_limit_k_min       -26
_diffrn_reflns_limit_l_max       14
_diffrn_reflns_limit_l_min       -7
_diffrn_reflns_number            6024
_diffrn_reflns_point_group_measured_fraction_full 0.992
_diffrn_reflns_point_group_measured_fraction_max 0.964
_diffrn_reflns_theta_full        67.684
_diffrn_reflns_theta_max         74.036
_diffrn_reflns_theta_min         3.740
_diffrn_source                   'sealed microfocus tube'
_exptl_absorpt_coefficient_mu    1.882
_exptl_absorpt_correction_T_max  1.00
_exptl_absorpt_correction_T_min  0.791
_exptl_absorpt_correction_type   multi-scan
_exptl_absorpt_process_details
;
CrysAlisPro, Agilent Technologies,
Version 1.171.37.31 (release 14-01-2014 CrysAlis171 .NET)
(compiled Jan 14 2014,18:38:05)
Empirical absorption correction using spherical harmonics,
 implemented in SCALE3 ABSPACK scaling algorithm.
;
_exptl_crystal_colour            colorless
_exptl_crystal_density_diffrn    1.327
_exptl_crystal_description       needle
_exptl_crystal_F_000             664
_exptl_crystal_size_max          0.210
_exptl_crystal_size_mid          0.090
_exptl_crystal_size_min          0.050
_refine_diff_density_max         0.336
_refine_diff_density_min         -0.399
_refine_diff_density_rms         0.051
_refine_ls_extinction_method     none
_refine_ls_goodness_of_fit_ref   1.011
_refine_ls_hydrogen_treatment    mixed
_refine_ls_matrix_type           full
_refine_ls_number_parameters     266
_refine_ls_number_reflns         3063
_refine_ls_number_restraints     309
_refine_ls_restrained_S_all      1.028
_refine_ls_R_factor_all          0.0572
_refine_ls_R_factor_gt           0.0526
_refine_ls_shift/su_max          0.001
_refine_ls_shift/su_mean         0.000
_refine_ls_structure_factor_coef Fsqd
_refine_ls_weighting_details
'w=1/[\s^2^(Fo^2^)+(0.0802P)^2^+0.9019P] where P=(Fo^2^+2Fc^2^)/3'
_refine_ls_weighting_scheme      calc
_refine_ls_wR_factor_gt          0.1409
_refine_ls_wR_factor_ref         0.1469
_reflns_Friedel_coverage         0.000
_reflns_number_gt                2751
_reflns_number_total             3063
_reflns_threshold_expression     'I > 2\s(I)'
_cod_data_source_file            c4sc01152j2.cif
_cod_data_source_block           shelx
_cod_depositor_comments
;Adding full bibliography for 1517493.cif.

 Adding full bibliography for 1517493.cif.
;
_cod_database_code               1517493
#BEGIN Tags that were not found in dictionaries:
_shelx_space_group_comment
;
The symmetry employed for this shelxl refinement is uniquely defined
by the following loop, which should always be used as a source of
symmetry information in preference to the above space-group names.
They are only intended as comments.
;
_shelx_estimated_absorpt_t_min   0.693
_shelx_estimated_absorpt_t_max   0.912
_shelxl_version_number           2013-4
_shelx_res_file
;
TITL 179b1-x2 in P21/n #14  colorless needles
CELL  1.54184   5.6521  23.6399  11.7535   90.000   92.736   90.000
ZERR     4.00   0.0001   0.0004   0.0002    0.000    0.002    0.000
LATT   1
SYMM  1/2 - X, 1/2 + Y, 1/2 - Z
SFAC  C    H    O    S    N
UNIT  72   76   8    4    4
MERG   2
isor .01 .02 n1 > c6a
simu .01 n1 >  c6a
size .05 .09 .21
FMAP   2
PLAN   20
ACTA
htab
BOND   $H
CONF
L.S.   6
TEMP  -140.00
WGHT    0.080200    0.901900
FVAR       4.67349   0.51495   0.04431
S1    4    0.672851    0.637350    0.492718    11.00000    0.06959    0.02922 =
         0.03541   -0.00512    0.00095    0.00859
O1    3    0.427966    0.622829    0.476926    11.00000    0.07721    0.03974 =
         0.05464    0.00598    0.00896   -0.01100
O2    3    0.763950    0.654894    0.602626    11.00000    0.09126    0.04720 =
         0.03549   -0.01184   -0.00424    0.02131
PART    1
N1    5    0.864429    0.585088    0.454604    10.50000    0.05434    0.03076 =
         0.03668   -0.00920    0.00609    0.00783
AFIX   3
H1N   2    1.018521    0.589568    0.483781    10.50000    0.03258
AFIX   0
C1    1    0.825706    0.557979    0.341200    10.50000    0.05812    0.02697 =
         0.03343   -0.00568    0.00046    0.00913
AFIX  13
H1    2    0.749004    0.586331    0.288161    10.50000   -1.20000
AFIX   0
C2    1    0.667461    0.507284    0.344530    10.50000    0.06835    0.05213 =
         0.04846   -0.00984    0.01645    0.00095
AFIX  43
H2    2    0.528847    0.509737    0.386906    10.50000   -1.20000
AFIX   0
C3    1    0.711075    0.458537    0.290796    10.50000    0.07353    0.04022 =
         0.05072   -0.00529    0.02629   -0.00912
AFIX  43
H3    2    0.599604    0.428597    0.294547    10.50000   -1.20000
AFIX   0
C4    1    0.925095    0.449673    0.226239    10.50000    0.07297    0.02886 =
         0.04222   -0.00563    0.00055    0.00390
AFIX  13
H4    2    1.039547    0.428942    0.278646    10.50000   -1.20000
AFIX   0
C5    1    1.047127    0.506000    0.197334    10.50000    0.05755    0.04849 =
         0.05073   -0.01418    0.01057   -0.00869
AFIX  23
H5A   2    1.207554    0.498141    0.170904    10.50000   -1.20000
H5B   2    0.955027    0.525117    0.134729    10.50000   -1.20000
AFIX   0
C6    1    1.065909    0.544221    0.299042    10.50000    0.06288    0.05054 =
         0.05142   -0.01784    0.01202   -0.01093
AFIX  23
H6A   2    1.146706    0.579678    0.278478    10.50000   -1.20000
H6B   2    1.162815    0.525628    0.360676    10.50000   -1.20000
AFIX   0
PART    2
same .01 N1 > c6
N1A   5    0.793287    0.580953    0.462905    10.50000    0.06436    0.03773 =
         0.03400   -0.00590    0.00280    0.01939
AFIX   3
H1NA  2    0.882575    0.564488    0.518829    10.50000    0.12825
AFIX   0
C1A   1    0.746768    0.552251    0.352551    10.50000    0.06631    0.03102 =
         0.04375   -0.00535    0.01349    0.00434
AFIX  13
H1A   2    0.599230    0.568600    0.315470    10.50000   -1.20000
AFIX   0
C2A   1    0.707312    0.490435    0.371488    10.50000    0.08418    0.03036 =
         0.05049    0.00302    0.02335    0.00274
AFIX  43
H2A   2    0.615115    0.479652    0.433414    10.50000   -1.20000
AFIX   0
C3A   1    0.792976    0.449525    0.307217    10.50000    0.06204    0.02817 =
         0.04683   -0.00076    0.01141    0.00233
AFIX  43
H3A   2    0.741391    0.411924    0.320159    10.50000   -1.20000
AFIX   0
C4A   1    0.963169    0.458660    0.216947    10.50000    0.04954    0.04232 =
         0.04664   -0.01094    0.01744   -0.00418
AFIX  13
H4A   2    1.127222    0.451187    0.249056    10.50000   -1.20000
AFIX   0
C5A   1    0.945992    0.520576    0.177561    10.50000    0.08289    0.04029 =
         0.04844   -0.00648    0.02319   -0.01240
AFIX  23
H5A1  2    1.081855    0.529311    0.130409    10.50000   -1.20000
H5A2  2    0.799012    0.525692    0.129416    10.50000   -1.20000
AFIX   0
C6A   1    0.945162    0.560707    0.274522    10.50000    0.09129    0.03872 =
         0.06151   -0.00910    0.02558   -0.01031
AFIX  23
H6A1  2    0.936063    0.599716    0.243986    10.50000   -1.20000
H6A2  2    1.097199    0.557096    0.319348    10.50000   -1.20000
AFIX   0
PART    0
C7    1    0.902760    0.415124    0.119364    11.00000    0.06159    0.03627 =
         0.04136   -0.00761    0.00724    0.00358
C8    1    1.072947    0.376430    0.092674    11.00000    0.07084    0.05315 =
         0.05090   -0.01830   -0.01247    0.02021
AFIX  43
H8    2    1.214864    0.374189    0.139126    11.00000   -1.20000
AFIX   0
C9    1    1.043122    0.340792    0.000283    11.00000    0.07484    0.04547 =
         0.05353   -0.01721    0.00097    0.01746
AFIX  43
H9    2    1.164907    0.314722   -0.015935    11.00000   -1.20000
AFIX   0
C10   1    0.844434    0.342340   -0.067241    11.00000    0.07300    0.04835 =
         0.04966   -0.01806    0.00111   -0.00322
AFIX  43
H10   2    0.826975    0.318330   -0.131913    11.00000   -1.20000
AFIX   0
C11   1    0.666229    0.379369   -0.041098    11.00000    0.06034    0.07482 =
         0.07457   -0.02186   -0.01278   -0.00187
AFIX  43
H11   2    0.522790    0.380251   -0.086613    11.00000   -1.20000
AFIX   0
C12   1    0.697023    0.415431    0.052095    11.00000    0.05610    0.05194 =
         0.06822   -0.01626    0.00751    0.00591
AFIX  43
H12   2    0.573378    0.440755    0.069540    11.00000   -1.20000
AFIX   0
C13   1    0.726999    0.691289    0.394008    11.00000    0.04401    0.02691 =
         0.04058   -0.01024    0.00299    0.00276
C14   1    0.557429    0.703850    0.309722    11.00000    0.04728    0.04148 =
         0.05277    0.00748   -0.00395   -0.00903
AFIX  43
H14   2    0.412455    0.683461    0.304961    11.00000   -1.20000
AFIX   0
C15   1    0.599045    0.746397    0.231756    11.00000    0.05908    0.04803 =
         0.06358    0.01657    0.00465    0.00274
AFIX  43
H15   2    0.481754    0.755348    0.173975    11.00000   -1.20000
AFIX   0
C16   1    0.809397    0.775581    0.237961    11.00000    0.06869    0.02856 =
         0.06409   -0.00317    0.02438   -0.00299
AFIX  43
H16   2    0.837231    0.804887    0.184936    11.00000   -1.20000
AFIX   0
C17   1    0.978911    0.762304    0.320828    11.00000    0.06065    0.05962 =
         0.07201   -0.01638    0.01893   -0.02709
AFIX  43
H17   2    1.124921    0.782280    0.324257    11.00000   -1.20000
AFIX   0
C18   1    0.940418    0.720159    0.399698    11.00000    0.04490    0.07045 =
         0.05395   -0.01595   -0.00206   -0.00593
AFIX  43
H18   2    1.058837    0.711179    0.456926    11.00000   -1.20000
AFIX   0
HKLF    4

REM  179b1-x2 in P21/n #14  colorless needles
REM R1 =  0.0526 for    2751 Fo > 4sig(Fo)  and  0.0572 for all    3063 data
REM    266 parameters refined using    309 restraints

END

WGHT      0.0795      0.7848

REM Instructions for potential hydrogen bonds
EQIV $1 x+1, y, z
HTAB N1 O1_$1
EQIV $2 -x+1, -y+1, -z+1
HTAB C2A O1_$2

REM Highest difference peak  0.336,  deepest hole -0.399,  1-sigma level  0.051
Q1    1   0.5992  0.6357  0.5649  11.00000  0.05    0.34
Q2    1   0.8626  0.4905  0.4134  11.00000  0.05    0.34
Q3    1   0.8065  0.5647  0.2469  11.00000  0.05    0.29
Q4    1   0.6041  0.4781  0.2435  11.00000  0.05    0.29
Q5    1   0.8397  0.6423  0.5702  11.00000  0.05    0.28
Q6    1   0.7751  0.4389  0.0081  11.00000  0.05    0.25
Q7    1   0.5144  0.6335  0.4250  11.00000  0.05    0.24
Q8    1   0.7888  0.4458  0.2259  11.00000  0.05    0.23
Q9    1   0.7337  0.6465  0.6545  11.00000  0.05    0.22
Q10   1   0.8026  0.4031  0.1103  11.00000  0.05    0.22
Q11   1   1.0684  0.4816  0.2569  11.00000  0.05    0.21
Q12   1   0.7449  0.4071 -0.0746  11.00000  0.05    0.20
Q13   1   0.6760  0.6723  0.4460  11.00000  0.05    0.19
Q14   1   0.8475  0.6964  0.3804  11.00000  0.05    0.18
Q15   1   1.1581  0.3641 -0.0092  11.00000  0.05    0.17
Q16   1   0.6471  0.7697  0.2729  11.00000  0.05    0.16
Q17   1   0.3325  0.6217  0.4146  11.00000  0.05    0.16
Q18   1   0.6226  0.5077  0.1794  11.00000  0.05    0.16
Q19   1   0.8825  0.4352  0.0737  11.00000  0.05    0.15
Q20   1   1.0591  0.5196  0.3357  11.00000  0.05    0.15
;
_shelx_res_checksum              81089
#END Tags that were not found in dictionaries
loop_
_space_group_symop_operation_xyz
'x, y, z'
'-x+1/2, y+1/2, -z+1/2'
'-x, -y, -z'
'x-1/2, -y-1/2, z-1/2'
loop_
_atom_site_label
_atom_site_type_symbol
_atom_site_fract_x
_atom_site_fract_y
_atom_site_fract_z
_atom_site_U_iso_or_equiv
_atom_site_adp_type
_atom_site_occupancy
_atom_site_site_symmetry_order
_atom_site_calc_flag
_atom_site_refinement_flags_posn
_atom_site_refinement_flags_adp
_atom_site_refinement_flags_occupancy
_atom_site_disorder_assembly
_atom_site_disorder_group
S1 S 0.67285(11) 0.63735(2) 0.49272(4) 0.0448(2) Uani 1 1 d . . . . .
O1 O 0.4280(3) 0.62283(7) 0.47693(15) 0.0570(5) Uani 1 1 d . . . . .
O2 O 0.7640(4) 0.65489(7) 0.60263(14) 0.0582(5) Uani 1 1 d . . . . .
N1 N 0.8644(14) 0.5851(4) 0.4546(7) 0.0405(15) Uani 0.5 1 d D U P A 1
H1N H 1.0185 0.5896 0.4838 0.033(11) Uiso 0.5 1 d R . P A 1
C1 C 0.8257(11) 0.5580(2) 0.3412(6) 0.0396(13) Uani 0.5 1 d D U P A 1
H1 H 0.7490 0.5863 0.2882 0.047 Uiso 0.5 1 calc R U P A 1
C2 C 0.6675(12) 0.5073(3) 0.3445(6) 0.0559(15) Uani 0.5 1 d D U P A 1
H2 H 0.5288 0.5097 0.3869 0.067 Uiso 0.5 1 calc R U P A 1
C3 C 0.7111(13) 0.4585(3) 0.2908(6) 0.0541(16) Uani 0.5 1 d D U P A 1
H3 H 0.5996 0.4286 0.2945 0.065 Uiso 0.5 1 calc R U P A 1
C4 C 0.9251(18) 0.4497(3) 0.2262(9) 0.0481(17) Uani 0.5 1 d D U P A 1
H4 H 1.0395 0.4289 0.2786 0.058 Uiso 0.5 1 calc R U P A 1
C5 C 1.0471(11) 0.5060(3) 0.1973(5) 0.0520(13) Uani 0.5 1 d D U P A 1
H5A H 1.2076 0.4981 0.1709 0.062 Uiso 0.5 1 calc R U P A 1
H5B H 0.9550 0.5251 0.1347 0.062 Uiso 0.5 1 calc R U P A 1
C6 C 1.0659(10) 0.5442(3) 0.2990(5) 0.0546(12) Uani 0.5 1 d D U P A 1
H6A H 1.1467 0.5797 0.2785 0.066 Uiso 0.5 1 calc R U P A 1
H6B H 1.1628 0.5256 0.3607 0.066 Uiso 0.5 1 calc R U P A 1
N1A N 0.7933(14) 0.5810(4) 0.4629(7) 0.0453(18) Uani 0.5 1 d D U P A 2
H1NA H 0.8826 0.5645 0.5188 0.13(3) Uiso 0.5 1 d R . P A 2
C1A C 0.7468(13) 0.5523(3) 0.3526(6) 0.0467(14) Uani 0.5 1 d D U P A 2
H1A H 0.5992 0.5686 0.3155 0.056 Uiso 0.5 1 calc R U P A 2
C2A C 0.7073(13) 0.4904(2) 0.3715(6) 0.0544(15) Uani 0.5 1 d D U P A 2
H2A H 0.6151 0.4797 0.4334 0.065 Uiso 0.5 1 calc R U P A 2
C3A C 0.7930(12) 0.4495(2) 0.3072(6) 0.0454(14) Uani 0.5 1 d D U P A 2
H3A H 0.7414 0.4119 0.3202 0.054 Uiso 0.5 1 calc R U P A 2
C4A C 0.9632(18) 0.4587(3) 0.2169(9) 0.0457(15) Uani 0.5 1 d D U P A 2
H4A H 1.1272 0.4512 0.2491 0.055 Uiso 0.5 1 calc R U P A 2
C5A C 0.9460(14) 0.5206(2) 0.1776(5) 0.0566(13) Uani 0.5 1 d D U P A 2
H5A1 H 1.0819 0.5293 0.1304 0.068 Uiso 0.5 1 calc R U P A 2
H5A2 H 0.7990 0.5257 0.1294 0.068 Uiso 0.5 1 calc R U P A 2
C6A C 0.9452(14) 0.5607(2) 0.2745(5) 0.0631(13) Uani 0.5 1 d D U P A 2
H6A1 H 0.9361 0.5997 0.2440 0.076 Uiso 0.5 1 calc R U P A 2
H6A2 H 1.0972 0.5571 0.3193 0.076 Uiso 0.5 1 calc R U P A 2
C7 C 0.9028(4) 0.41512(9) 0.11936(19) 0.0463(5) Uani 1 1 d . . . . .
C8 C 1.0729(5) 0.37643(12) 0.0927(2) 0.0588(7) Uani 1 1 d . . . . .
H8 H 1.2149 0.3742 0.1391 0.071 Uiso 1 1 calc R U . . .
C9 C 1.0431(5) 0.34079(11) 0.0003(2) 0.0580(7) Uani 1 1 d . . . . .
H9 H 1.1649 0.3147 -0.0159 0.070 Uiso 1 1 calc R U . . .
C10 C 0.8444(5) 0.34234(11) -0.0672(2) 0.0571(6) Uani 1 1 d . . . . .
H10 H 0.8270 0.3183 -0.1319 0.068 Uiso 1 1 calc R U . . .
C11 C 0.6662(5) 0.37937(15) -0.0411(3) 0.0704(8) Uani 1 1 d . . . . .
H11 H 0.5228 0.3803 -0.0866 0.085 Uiso 1 1 calc R U . . .
C12 C 0.6970(5) 0.41543(12) 0.0521(2) 0.0586(7) Uani 1 1 d . . . . .
H12 H 0.5734 0.4408 0.0695 0.070 Uiso 1 1 calc R U . . .
C13 C 0.7270(4) 0.69129(8) 0.39401(17) 0.0371(4) Uani 1 1 d . . . . .
C14 C 0.5574(4) 0.70385(10) 0.3097(2) 0.0474(5) Uani 1 1 d . . . . .
H14 H 0.4125 0.6835 0.3050 0.057 Uiso 1 1 calc R U . . .
C15 C 0.5990(5) 0.74640(11) 0.2318(2) 0.0568(6) Uani 1 1 d . . . . .
H15 H 0.4818 0.7553 0.1740 0.068 Uiso 1 1 calc R U . . .
C16 C 0.8094(5) 0.77558(9) 0.2380(2) 0.0531(6) Uani 1 1 d . . . . .
H16 H 0.8372 0.8049 0.1849 0.064 Uiso 1 1 calc R U . . .
C17 C 0.9789(5) 0.76230(12) 0.3208(3) 0.0636(7) Uani 1 1 d . . . . .
H17 H 1.1249 0.7823 0.3243 0.076 Uiso 1 1 calc R U . . .
C18 C 0.9404(4) 0.72016(12) 0.3997(2) 0.0566(6) Uani 1 1 d . . . . .
H18 H 1.0588 0.7112 0.4569 0.068 Uiso 1 1 calc R U . . .
loop_
_atom_site_aniso_label
_atom_site_aniso_U_11
_atom_site_aniso_U_22
_atom_site_aniso_U_33
_atom_site_aniso_U_23
_atom_site_aniso_U_13
_atom_site_aniso_U_12
S1 0.0696(4) 0.0292(3) 0.0354(3) -0.00512(19) 0.0010(2) 0.0086(2)
O1 0.0772(12) 0.0397(9) 0.0546(10) 0.0060(7) 0.0090(8) -0.0110(8)
O2 0.0913(13) 0.0472(9) 0.0355(8) -0.0118(7) -0.0042(8) 0.0213(9)
N1 0.054(4) 0.031(2) 0.037(2) -0.0092(18) 0.006(2) 0.008(3)
C1 0.058(3) 0.027(2) 0.033(2) -0.0057(17) 0.000(2) 0.009(2)
C2 0.068(3) 0.052(3) 0.048(3) -0.010(2) 0.016(2) 0.001(3)
C3 0.074(3) 0.040(3) 0.051(3) -0.005(2) 0.026(3) -0.009(2)
C4 0.073(4) 0.029(2) 0.042(3) -0.006(2) 0.001(3) 0.004(2)
C5 0.058(3) 0.048(3) 0.051(3) -0.014(2) 0.011(2) -0.009(2)
C6 0.063(3) 0.051(3) 0.051(2) -0.018(2) 0.012(2) -0.011(2)
N1A 0.064(4) 0.038(3) 0.034(2) -0.006(2) 0.003(3) 0.019(3)
C1A 0.066(3) 0.031(2) 0.044(2) -0.0054(19) 0.013(2) 0.004(2)
C2A 0.084(3) 0.030(2) 0.050(3) 0.003(2) 0.023(2) 0.003(2)
C3A 0.062(3) 0.028(2) 0.047(3) -0.0008(18) 0.011(2) 0.002(2)
C4A 0.050(3) 0.042(3) 0.047(3) -0.011(2) 0.017(2) -0.004(2)
C5A 0.083(3) 0.040(2) 0.048(2) -0.006(2) 0.023(2) -0.012(2)
C6A 0.091(3) 0.039(2) 0.062(3) -0.009(2) 0.026(3) -0.010(2)
C7 0.0616(14) 0.0363(11) 0.0414(11) -0.0076(9) 0.0072(10) 0.0036(9)
C8 0.0708(16) 0.0531(14) 0.0509(14) -0.0183(12) -0.0125(12) 0.0202(12)
C9 0.0748(17) 0.0455(13) 0.0535(14) -0.0172(11) 0.0010(12) 0.0175(12)
C10 0.0730(16) 0.0483(13) 0.0497(13) -0.0181(11) 0.0011(12) -0.0032(12)
C11 0.0603(16) 0.0748(19) 0.0746(19) -0.0219(16) -0.0128(13) -0.0019(14)
C12 0.0561(14) 0.0519(14) 0.0682(17) -0.0163(12) 0.0075(12) 0.0059(11)
C13 0.0440(10) 0.0269(9) 0.0406(10) -0.0102(8) 0.0030(8) 0.0028(8)
C14 0.0473(12) 0.0415(11) 0.0528(13) 0.0075(10) -0.0039(9) -0.0090(9)
C15 0.0591(14) 0.0480(13) 0.0636(15) 0.0166(12) 0.0046(11) 0.0027(11)
C16 0.0687(16) 0.0286(10) 0.0641(15) -0.0032(10) 0.0244(12) -0.0030(10)
C17 0.0606(16) 0.0596(16) 0.0720(17) -0.0164(14) 0.0189(13) -0.0271(13)
C18 0.0449(12) 0.0704(17) 0.0540(14) -0.0160(12) -0.0021(10) -0.0059(11)
loop_
_atom_type_symbol
_atom_type_description
_atom_type_scat_dispersion_real
_atom_type_scat_dispersion_imag
_atom_type_scat_source
C C 0.0181 0.0091 'International Tables Vol C Tables 4.2.6.8 and 6.1.1.4'
H H 0.0000 0.0000 'International Tables Vol C Tables 4.2.6.8 and 6.1.1.4'
O O 0.0492 0.0322 'International Tables Vol C Tables 4.2.6.8 and 6.1.1.4'
S S 0.3331 0.5567 'International Tables Vol C Tables 4.2.6.8 and 6.1.1.4'
N N 0.0311 0.0180 'International Tables Vol C Tables 4.2.6.8 and 6.1.1.4'
loop_
_geom_angle_atom_site_label_1
_geom_angle_atom_site_label_2
_geom_angle_atom_site_label_3
_geom_angle
O2 S1 O1 119.46(12)
O2 S1 N1A 108.2(3)
O1 S1 N1A 101.4(3)
O2 S1 N1 103.9(3)
O1 S1 N1 114.3(3)
O2 S1 C13 108.60(11)
O1 S1 C13 106.62(10)
N1A S1 C13 112.5(3)
N1 S1 C13 102.6(3)
C1 N1 S1 118.5(6)
C1 N1 H1N 118.5
S1 N1 H1N 114.5
N1 C1 C2 112.6(5)
N1 C1 C6 107.0(5)
C2 C1 C6 112.7(5)
N1 C1 H1 108.1
C2 C1 H1 108.1
C6 C1 H1 108.1
C3 C2 C1 123.5(5)
C3 C2 H2 118.3
C1 C2 H2 118.3
C2 C3 C4 122.6(6)
C2 C3 H3 118.7
C4 C3 H3 118.7
C3 C4 C7 118.1(8)
C3 C4 C5 112.1(5)
C7 C4 C5 107.8(5)
C3 C4 H4 106.0
C7 C4 H4 106.0
C5 C4 H4 106.0
C6 C5 C4 111.1(5)
C6 C5 H5A 109.4
C4 C5 H5A 109.4
C6 C5 H5B 109.4
C4 C5 H5B 109.4
H5A C5 H5B 108.0
C5 C6 C1 111.3(5)
C5 C6 H6A 109.4
C1 C6 H6A 109.4
C5 C6 H6B 109.4
C1 C6 H6B 109.4
H6A C6 H6B 108.0
C1A N1A S1 122.3(7)
C1A N1A H1NA 120.9
S1 N1A H1NA 116.5
N1A C1A C6A 111.7(6)
N1A C1A C2A 109.9(6)
C6A C1A C2A 110.1(5)
N1A C1A H1A 108.4
C6A C1A H1A 108.4
C2A C1A H1A 108.4
C3A C2A C1A 124.3(5)
C3A C2A H2A 117.8
C1A C2A H2A 117.8
C2A C3A C4A 124.5(6)
C2A C3A H3A 117.8
C4A C3A H3A 117.8
C3A C4A C5A 108.7(5)
C3A C4A C7 107.6(6)
C5A C4A C7 113.4(8)
C3A C4A H4A 109.0
C5A C4A H4A 109.0
C7 C4A H4A 109.0
C6A C5A C4A 112.3(5)
C6A C5A H5A1 109.1
C4A C5A H5A1 109.1
C6A C5A H5A2 109.1
C4A C5A H5A2 109.1
H5A1 C5A H5A2 107.9
C5A C6A C1A 114.6(5)
C5A C6A H6A1 108.6
C1A C6A H6A1 108.6
C5A C6A H6A2 108.6
C1A C6A H6A2 108.6
H6A1 C6A H6A2 107.6
C8 C7 C12 117.0(2)
C8 C7 C4 121.5(5)
C12 C7 C4 121.0(5)
C8 C7 C4A 118.3(4)
C12 C7 C4A 124.5(4)
C7 C8 C9 121.7(2)
C7 C8 H8 119.1
C9 C8 H8 119.1
C10 C9 C8 121.0(2)
C10 C9 H9 119.5
C8 C9 H9 119.5
C9 C10 C11 118.9(2)
C9 C10 H10 120.5
C11 C10 H10 120.5
C10 C11 C12 119.9(3)
C10 C11 H11 120.1
C12 C11 H11 120.1
C7 C12 C11 121.3(2)
C7 C12 H12 119.3
C11 C12 H12 119.3
C14 C13 C18 120.2(2)
C14 C13 S1 119.55(16)
C18 C13 S1 120.24(18)
C13 C14 C15 119.8(2)
C13 C14 H14 120.1
C15 C14 H14 120.1
C16 C15 C14 120.2(2)
C16 C15 H15 119.9
C14 C15 H15 119.9
C17 C16 C15 119.8(2)
C17 C16 H16 120.1
C15 C16 H16 120.1
C16 C17 C18 120.9(2)
C16 C17 H17 119.5
C18 C17 H17 119.5
C13 C18 C17 119.1(2)
C13 C18 H18 120.4
C17 C18 H18 120.4
loop_
_geom_bond_atom_site_label_1
_geom_bond_atom_site_label_2
_geom_bond_distance
S1 O2 1.4291(17)
S1 O1 1.430(2)
S1 N1A 1.545(9)
S1 N1 1.716(9)
S1 C13 1.761(2)
N1 C1 1.486(6)
N1 H1N 0.9267
C1 C2 1.497(7)
C1 C6 1.503(7)
C1 H1 1.0000
C2 C3 1.343(7)
C2 H2 0.9500
C3 C4 1.473(7)
C3 H3 0.9500
C4 C7 1.499(9)
C4 C5 1.545(7)
C4 H4 1.0000
C5 C6 1.498(6)
C5 H5A 0.9900
C5 H5B 0.9900
C6 H6A 0.9900
C6 H6B 0.9900
N1A C1A 1.476(6)
N1A H1NA 0.8981
C1A C6A 1.496(7)
C1A C2A 1.496(7)
C1A H1A 1.0000
C2A C3A 1.332(6)
C2A H2A 0.9500
C3A C4A 1.482(7)
C3A H3A 0.9500
C4A C5A 1.537(8)
C4A C7 1.566(10)
C4A H4A 1.0000
C5A C6A 1.483(6)
C5A H5A1 0.9900
C5A H5A2 0.9900
C6A H6A1 0.9900
C6A H6A2 0.9900
C7 C8 1.374(3)
C7 C12 1.375(4)
C8 C9 1.378(3)
C8 H8 0.9500
C9 C10 1.344(4)
C9 H9 0.9500
C10 C11 1.380(4)
C10 H10 0.9500
C11 C12 1.392(4)
C11 H11 0.9500
C12 H12 0.9500
C13 C14 1.377(3)
C13 C18 1.385(3)
C14 C15 1.388(3)
C14 H14 0.9500
C15 C16 1.374(4)
C15 H15 0.9500
C16 C17 1.370(4)
C16 H16 0.9500
C17 C18 1.385(4)
C17 H17 0.9500
C18 H18 0.9500
loop_
_geom_torsion_atom_site_label_1
_geom_torsion_atom_site_label_2
_geom_torsion_atom_site_label_3
_geom_torsion_atom_site_label_4
_geom_torsion
O2 S1 N1 C1 -178.3(5)
O1 S1 N1 C1 49.8(7)
N1A S1 N1 C1 72(2)
C13 S1 N1 C1 -65.2(6)
S1 N1 C1 C2 -90.1(7)
S1 N1 C1 C6 145.6(6)
N1 C1 C2 C3 -136.4(8)
C6 C1 C2 C3 -15.3(10)
C1 C2 C3 C4 2.2(12)
C2 C3 C4 C7 -143.6(7)
C2 C3 C4 C5 -17.4(13)
C3 C4 C5 C6 45.7(11)
C7 C4 C5 C6 177.4(6)
C4 C5 C6 C1 -59.9(8)
N1 C1 C6 C5 168.0(6)
C2 C1 C6 C5 43.7(8)
O2 S1 N1A C1A -177.3(5)
O1 S1 N1A C1A 56.2(7)
N1 S1 N1A C1A -103(3)
C13 S1 N1A C1A -57.3(7)
S1 N1A C1A C6A 103.1(7)
S1 N1A C1A C2A -134.5(7)
N1A C1A C2A C3A -139.0(7)
C6A C1A C2A C3A -15.5(11)
C1A C2A C3A C4A 7.9(13)
C2A C3A C4A C5A -22.5(13)
C2A C3A C4A C7 -145.6(7)
C3A C4A C5A C6A 46.3(11)
C7 C4A C5A C6A 165.9(6)
C4A C5A C6A C1A -59.1(10)
N1A C1A C6A C5A 163.1(7)
C2A C1A C6A C5A 40.8(9)
C3 C4 C7 C8 -138.9(6)
C5 C4 C7 C8 92.8(7)
C3 C4 C7 C12 32.3(8)
C5 C4 C7 C12 -96.0(7)
C3 C4 C7 C4A 143(4)
C5 C4 C7 C4A 15(3)
C3A C4A C7 C8 -119.1(6)
C5A C4A C7 C8 120.6(6)
C3A C4A C7 C12 66.0(8)
C5A C4A C7 C12 -54.2(7)
C3A C4A C7 C4 -10(3)
C5A C4A C7 C4 -131(4)
C12 C7 C8 C9 2.2(4)
C4 C7 C8 C9 173.8(4)
C4A C7 C8 C9 -173.0(4)
C7 C8 C9 C10 -0.4(5)
C8 C9 C10 C11 -1.7(5)
C9 C10 C11 C12 1.8(5)
C8 C7 C12 C11 -2.1(4)
C4 C7 C12 C11 -173.6(4)
C4A C7 C12 C11 172.8(4)
C10 C11 C12 C7 0.1(5)
O2 S1 C13 C14 -140.75(18)
O1 S1 C13 C14 -10.8(2)
N1A S1 C13 C14 99.5(3)
N1 S1 C13 C14 109.7(3)
O2 S1 C13 C18 40.5(2)
O1 S1 C13 C18 170.44(18)
N1A S1 C13 C18 -79.2(3)
N1 S1 C13 C18 -69.1(3)
C18 C13 C14 C15 -1.3(3)
S1 C13 C14 C15 179.91(19)
C13 C14 C15 C16 0.6(4)
C14 C15 C16 C17 0.5(4)
C15 C16 C17 C18 -0.8(4)
C14 C13 C18 C17 1.1(4)
S1 C13 C18 C17 179.81(19)
C16 C17 C18 C13 0.0(4)
