#------------------------------------------------------------------------------
#$Date: 2016-02-13 14:50:18 +0200 (Sat, 13 Feb 2016) $
#$Revision: 176428 $
#$URL: svn://www.crystallography.net/cod/cif/1/52/93/1529372.cif $
#------------------------------------------------------------------------------
#
# This file is available in the Crystallography Open Database (COD),
# http://www.crystallography.net/
#
# All data on this site have been placed in the public domain by the
# contributors.
#
data_1529372
loop_
_publ_author_name
'Xin, Xiaoyi'
'Wang, Haolong'
'Li, Xincheng'
'Wang, Dongping'
'Wan, Boshun'
_publ_section_title
;
 Base-Catalyzed Selective Synthesis of 2-Azabicyclo[3.2.0]hept-2-enes and
 Sulfonyl Vinyl-Substituted Pyrroles from 3-Aza-1,5-enynes.
;
_journal_issue                   16
_journal_name_full               'Organic letters'
_journal_page_first              3944
_journal_page_last               3947
_journal_paper_doi               10.1021/acs.orglett.5b01474
_journal_volume                  17
_journal_year                    2015
_chemical_formula_sum            'C28 H24 F3 N O4 S'
_chemical_formula_weight         527.54
_chemical_name_systematic
; 
 ? 
;
_space_group_IT_number           14
_symmetry_cell_setting           monoclinic
_symmetry_space_group_name_Hall  '-P 2yn'
_symmetry_space_group_name_H-M   'P 1 21/n 1'
_atom_sites_solution_hydrogens   geom
_atom_sites_solution_primary     direct
_atom_sites_solution_secondary   difmap
_audit_creation_method           SHELXL-97
_cell_angle_alpha                90.00
_cell_angle_beta                 92.274(2)
_cell_angle_gamma                90.00
_cell_formula_units_Z            4
_cell_length_a                   15.6589(11)
_cell_length_b                   9.9834(7)
_cell_length_c                   16.2519(12)
_cell_measurement_reflns_used    1337
_cell_measurement_temperature    293(2)
_cell_measurement_theta_max      38.736
_cell_measurement_theta_min      4.790
_cell_volume                     2538.6(3)
_computing_cell_refinement       'Bruker SMART'
_computing_data_collection       'Bruker SMART'
_computing_data_reduction        'Bruker SHELXTL'
_computing_molecular_graphics    'Bruker SHELXTL'
_computing_publication_material  'Bruker SHELXTL'
_computing_structure_refinement  'SHELXL-97 (Sheldrick, 1997)'
_computing_structure_solution    'SHELXS-97 (Sheldrick, 1990)'
_diffrn_ambient_temperature      293(2)
_diffrn_measured_fraction_theta_full 1.000
_diffrn_measured_fraction_theta_max 1.000
_diffrn_measurement_device_type  'CCD area detector'
_diffrn_measurement_method       'phi and omega scans'
_diffrn_radiation_monochromator  graphite
_diffrn_radiation_source         'fine-focus sealed tube'
_diffrn_radiation_type           MoK\a
_diffrn_radiation_wavelength     0.71073
_diffrn_reflns_av_R_equivalents  0.0555
_diffrn_reflns_av_sigmaI/netI    0.0631
_diffrn_reflns_limit_h_max       19
_diffrn_reflns_limit_h_min       -19
_diffrn_reflns_limit_k_max       12
_diffrn_reflns_limit_k_min       -10
_diffrn_reflns_limit_l_max       19
_diffrn_reflns_limit_l_min       -20
_diffrn_reflns_number            14923
_diffrn_reflns_theta_full        26.00
_diffrn_reflns_theta_max         26.00
_diffrn_reflns_theta_min         1.77
_exptl_absorpt_coefficient_mu    0.185
_exptl_absorpt_correction_T_max  1.00000
_exptl_absorpt_correction_T_min  0.45074
_exptl_absorpt_correction_type   empirical
_exptl_absorpt_process_details   sadabs
_exptl_crystal_colour            colorless
_exptl_crystal_density_diffrn    1.380
_exptl_crystal_density_method    'not measured'
_exptl_crystal_description       prismatic
_exptl_crystal_F_000             1096
_exptl_crystal_size_max          0.176
_exptl_crystal_size_mid          0.154
_exptl_crystal_size_min          0.123
_refine_diff_density_max         0.264
_refine_diff_density_min         -0.218
_refine_diff_density_rms         0.038
_refine_ls_extinction_method     none
_refine_ls_goodness_of_fit_ref   0.961
_refine_ls_hydrogen_treatment    constr
_refine_ls_matrix_type           full
_refine_ls_number_parameters     336
_refine_ls_number_reflns         4992
_refine_ls_number_restraints     0
_refine_ls_restrained_S_all      0.961
_refine_ls_R_factor_all          0.1005
_refine_ls_R_factor_gt           0.0489
_refine_ls_shift/su_max          0.020
_refine_ls_shift/su_mean         0.000
_refine_ls_structure_factor_coef Fsqd
_refine_ls_weighting_details
'calc w=1/[\s^2^(Fo^2^)+(0.0526P)^2^+0.0000P] where P=(Fo^2^+2Fc^2^)/3'
_refine_ls_weighting_scheme      calc
_refine_ls_wR_factor_gt          0.1060
_refine_ls_wR_factor_ref         0.1263
_reflns_number_gt                2833
_reflns_number_total             4992
_reflns_threshold_expression     >2sigma(I)
_cod_data_source_file            ol5b01474_si_001.cif
_cod_data_source_block           cd213674
_cod_depositor_comments
;
The following automatic conversions were performed:

'_symmetry_cell_setting' value 'Monoclinic' changed to 'monoclinic'
according to
/usr/data/users/saulius/crontab/automatic-downloads/rss-feeds/ACS/lib/dictionaries/cif_core.dic
dictionary named 'cif_core.dic' version 2.4.2 from 2011-04-26.

Automatic conversion script
Id: cif_fix_values 3271 2015-04-21 07:52:19Z andrius 

 Adding full bibliography for 1529370--1529373.cif.
;
_cod_original_sg_symbol_H-M      P2(1)/n
_cod_database_code               1529372
loop_
_symmetry_equiv_pos_as_xyz
'x, y, z'
'-x+1/2, y+1/2, -z+1/2'
'-x, -y, -z'
'x-1/2, -y-1/2, z-1/2'
loop_
_atom_site_label
_atom_site_type_symbol
_atom_site_fract_x
_atom_site_fract_y
_atom_site_fract_z
_atom_site_U_iso_or_equiv
_atom_site_adp_type
_atom_site_occupancy
_atom_site_symmetry_multiplicity
_atom_site_calc_flag
_atom_site_refinement_flags
S1 S 0.59372(4) 0.58671(8) 0.20055(4) 0.0564(2) Uani 1 1 d .
F1 F 0.56827(11) 0.98614(17) 0.33326(12) 0.0861(6) Uani 1 1 d .
F2 F 0.43740(11) 0.99926(17) 0.36116(11) 0.0798(5) Uani 1 1 d .
F3 F 0.47330(12) 0.91626(18) 0.24653(9) 0.0861(6) Uani 1 1 d .
N1 N 0.42993(12) 0.6990(2) 0.33718(12) 0.0454(5) Uani 1 1 d .
O1 O 0.44058(12) 0.6590(2) 0.55764(11) 0.0647(5) Uani 1 1 d .
O2 O 0.38050(12) 0.8423(2) 0.50340(11) 0.0660(6) Uani 1 1 d .
O3 O 0.53430(13) 0.6643(2) 0.15004(11) 0.0766(6) Uani 1 1 d .
O4 O 0.68094(12) 0.6282(2) 0.20845(12) 0.0824(7) Uani 1 1 d .
C1 C 0.50097(14) 0.7845(3) 0.36517(13) 0.0422(6) Uani 1 1 d .
C2 C 0.51727(14) 0.7856(3) 0.46063(13) 0.0425(6) Uani 1 1 d .
H2 H 0.5442 0.8699 0.4785 0.051 Uiso 1 1 calc R
C3 C 0.58558(14) 0.6745(3) 0.45159(13) 0.0414(6) Uani 1 1 d .
H3 H 0.5603 0.5869 0.4628 0.050 Uiso 1 1 calc R
C4 C 0.58318(14) 0.7002(3) 0.35658(13) 0.0435(6) Uani 1 1 d .
H4 H 0.6323 0.7494 0.3364 0.052 Uiso 1 1 calc R
C5 C 0.55512(14) 0.5802(3) 0.30472(13) 0.0435(6) Uani 1 1 d .
H5 H 0.5741 0.4971 0.3318 0.052 Uiso 1 1 calc R
C6 C 0.45821(14) 0.5913(3) 0.30548(13) 0.0407(6) Uani 1 1 d .
C7 C 0.40062(15) 0.4887(3) 0.26811(14) 0.0429(6) Uani 1 1 d .
C8 C 0.41768(17) 0.3537(3) 0.27521(16) 0.0565(7) Uani 1 1 d .
H8 H 0.4660 0.3247 0.3052 0.068 Uiso 1 1 calc R
C9 C 0.36300(18) 0.2614(3) 0.23778(17) 0.0668(8) Uani 1 1 d .
H9 H 0.3743 0.1703 0.2432 0.080 Uiso 1 1 calc R
C10 C 0.29243(19) 0.3036(3) 0.19279(17) 0.0664(8) Uani 1 1 d .
H10 H 0.2560 0.2412 0.1675 0.080 Uiso 1 1 calc R
C11 C 0.27542(17) 0.4371(3) 0.18500(17) 0.0625(8) Uani 1 1 d .
H11 H 0.2278 0.4655 0.1537 0.075 Uiso 1 1 calc R
C12 C 0.32856(16) 0.5301(3) 0.22338(15) 0.0533(7) Uani 1 1 d .
H12 H 0.3159 0.6209 0.2191 0.064 Uiso 1 1 calc R
C13 C 0.67013(15) 0.6871(3) 0.49818(14) 0.0460(6) Uani 1 1 d .
C14 C 0.71960(17) 0.8007(3) 0.49233(16) 0.0599(8) Uani 1 1 d .
H14 H 0.7000 0.8720 0.4599 0.072 Uiso 1 1 calc R
C15 C 0.79824(18) 0.8099(4) 0.53417(18) 0.0702(9) Uani 1 1 d .
H15 H 0.8307 0.8874 0.5301 0.084 Uiso 1 1 calc R
C16 C 0.82823(19) 0.7054(4) 0.58136(18) 0.0743(10) Uani 1 1 d .
H16 H 0.8813 0.7113 0.6089 0.089 Uiso 1 1 calc R
C17 C 0.77964(19) 0.5916(4) 0.58803(18) 0.0721(9) Uani 1 1 d .
H17 H 0.7996 0.5206 0.6205 0.087 Uiso 1 1 calc R
C18 C 0.70087(16) 0.5826(3) 0.54647(15) 0.0570(7) Uani 1 1 d .
H18 H 0.6683 0.5053 0.5512 0.068 Uiso 1 1 calc R
C19 C 0.44321(16) 0.7532(3) 0.51281(15) 0.0462(6) Uani 1 1 d .
C20 C 0.30415(18) 0.8146(3) 0.5490(2) 0.0829(10) Uani 1 1 d .
H20A H 0.2838 0.7261 0.5359 0.124 Uiso 1 1 calc R
H20B H 0.2606 0.8789 0.5340 0.124 Uiso 1 1 calc R
H20C H 0.3177 0.8207 0.6070 0.124 Uiso 1 1 calc R
C21 C 0.49423(18) 0.9203(3) 0.32597(17) 0.0551(7) Uani 1 1 d .
C22 C 0.59107(16) 0.4205(3) 0.16688(15) 0.0540(7) Uani 1 1 d .
C23 C 0.64955(19) 0.3295(4) 0.20011(17) 0.0677(9) Uani 1 1 d .
H23 H 0.6914 0.3578 0.2384 0.081 Uiso 1 1 calc R
C24 C 0.6457(2) 0.1972(4) 0.1764(2) 0.0809(10) Uani 1 1 d .
H24 H 0.6845 0.1364 0.1999 0.097 Uiso 1 1 calc R
C25 C 0.5862(3) 0.1535(4) 0.1191(2) 0.0826(10) Uani 1 1 d .
C26 C 0.5287(2) 0.2442(4) 0.0863(2) 0.0840(11) Uani 1 1 d .
H26 H 0.4874 0.2153 0.0475 0.101 Uiso 1 1 calc R
C27 C 0.53032(18) 0.3780(4) 0.10957(17) 0.0692(9) Uani 1 1 d .
H27 H 0.4907 0.4381 0.0866 0.083 Uiso 1 1 calc R
C28 C 0.5854(3) 0.0072(4) 0.0924(3) 0.1315(17) Uani 1 1 d .
H28A H 0.5274 -0.0213 0.0817 0.197 Uiso 1 1 calc R
H28B H 0.6112 -0.0469 0.1354 0.197 Uiso 1 1 calc R
H28C H 0.6169 -0.0024 0.0432 0.197 Uiso 1 1 calc R
loop_
_atom_site_aniso_label
_atom_site_aniso_U_11
_atom_site_aniso_U_22
_atom_site_aniso_U_33
_atom_site_aniso_U_23
_atom_site_aniso_U_13
_atom_site_aniso_U_12
S1 0.0575(5) 0.0710(5) 0.0411(4) -0.0061(4) 0.0078(3) -0.0068(4)
F1 0.0846(13) 0.0639(12) 0.1090(14) 0.0216(11) -0.0066(10) -0.0234(10)
F2 0.0985(13) 0.0567(11) 0.0846(12) 0.0088(10) 0.0091(10) 0.0220(10)
F3 0.1380(16) 0.0720(13) 0.0470(9) 0.0160(9) -0.0146(9) -0.0012(11)
N1 0.0454(12) 0.0489(14) 0.0416(11) -0.0002(11) -0.0030(9) -0.0019(11)
O1 0.0709(13) 0.0620(14) 0.0616(12) 0.0167(11) 0.0108(10) 0.0041(11)
O2 0.0606(12) 0.0630(13) 0.0759(13) 0.0126(11) 0.0219(10) 0.0157(11)
O3 0.1003(15) 0.0812(16) 0.0481(11) 0.0145(11) 0.0013(10) 0.0165(13)
O4 0.0629(13) 0.116(2) 0.0696(13) -0.0263(13) 0.0224(10) -0.0333(12)
C1 0.0431(14) 0.0455(16) 0.0377(13) 0.0007(12) -0.0008(10) -0.0031(12)
C2 0.0461(14) 0.0427(16) 0.0386(13) -0.0001(12) -0.0001(11) -0.0024(12)
C3 0.0441(14) 0.0429(16) 0.0369(13) -0.0038(12) -0.0016(10) -0.0009(12)
C4 0.0412(14) 0.0509(17) 0.0383(13) -0.0015(12) 0.0009(10) -0.0055(12)
C5 0.0418(14) 0.0514(16) 0.0373(13) -0.0007(13) 0.0001(10) -0.0002(13)
C6 0.0428(14) 0.0474(16) 0.0317(12) 0.0047(12) 0.0011(10) 0.0010(13)
C7 0.0441(15) 0.0493(17) 0.0351(13) 0.0020(13) 0.0007(11) -0.0051(13)
C8 0.0553(17) 0.0554(19) 0.0579(16) 0.0064(16) -0.0081(13) -0.0052(15)
C9 0.077(2) 0.0519(19) 0.0700(19) 0.0038(17) -0.0120(16) -0.0128(16)
C10 0.068(2) 0.065(2) 0.0651(18) 0.0021(17) -0.0080(15) -0.0245(17)
C11 0.0530(17) 0.076(2) 0.0569(17) 0.0005(17) -0.0165(13) -0.0073(16)
C12 0.0518(16) 0.0553(18) 0.0522(16) 0.0026(14) -0.0062(13) 0.0006(14)
C13 0.0486(15) 0.0535(18) 0.0358(13) -0.0054(13) -0.0007(11) 0.0020(13)
C14 0.0599(18) 0.063(2) 0.0564(16) -0.0046(15) -0.0081(14) -0.0021(15)
C15 0.0562(19) 0.086(3) 0.0678(19) -0.0199(19) -0.0064(15) -0.0105(17)
C16 0.0526(19) 0.111(3) 0.0583(18) -0.021(2) -0.0162(15) 0.010(2)
C17 0.067(2) 0.092(3) 0.0560(17) 0.0019(18) -0.0107(15) 0.019(2)
C18 0.0556(17) 0.068(2) 0.0470(15) 0.0023(15) -0.0033(13) 0.0094(15)
C19 0.0523(16) 0.0472(17) 0.0386(14) -0.0026(13) -0.0035(12) 0.0010(14)
C20 0.064(2) 0.083(3) 0.104(3) 0.009(2) 0.0335(18) 0.0102(18)
C21 0.0624(19) 0.0530(19) 0.0496(16) 0.0050(15) -0.0018(13) -0.0054(16)
C22 0.0475(16) 0.073(2) 0.0410(14) -0.0116(15) 0.0014(12) 0.0026(15)
C23 0.066(2) 0.085(3) 0.0520(17) -0.0063(18) 0.0020(14) 0.0069(18)
C24 0.097(3) 0.077(3) 0.070(2) 0.002(2) 0.022(2) 0.020(2)
C25 0.102(3) 0.082(3) 0.066(2) -0.014(2) 0.035(2) -0.014(2)
C26 0.081(2) 0.101(3) 0.070(2) -0.035(2) 0.0070(18) -0.022(2)
C27 0.0612(19) 0.092(3) 0.0538(17) -0.0165(18) -0.0015(14) 0.0016(17)
C28 0.206(5) 0.073(3) 0.121(3) -0.024(3) 0.069(3) -0.022(3)
loop_
_atom_type_symbol
_atom_type_description
_atom_type_scat_dispersion_real
_atom_type_scat_dispersion_imag
_atom_type_scat_source
C C 0.0033 0.0016 'International Tables Vol C Tables 4.2.6.8 and 6.1.1.4'
H H 0.0000 0.0000 'International Tables Vol C Tables 4.2.6.8 and 6.1.1.4'
N N 0.0061 0.0033 'International Tables Vol C Tables 4.2.6.8 and 6.1.1.4'
O O 0.0106 0.0060 'International Tables Vol C Tables 4.2.6.8 and 6.1.1.4'
F F 0.0171 0.0103 'International Tables Vol C Tables 4.2.6.8 and 6.1.1.4'
S S 0.1246 0.1234 'International Tables Vol C Tables 4.2.6.8 and 6.1.1.4'
loop_
_geom_angle_atom_site_label_1
_geom_angle_atom_site_label_2
_geom_angle_atom_site_label_3
_geom_angle
O4 S1 O3 119.24(14)
O4 S1 C22 108.32(13)
O3 S1 C22 108.99(13)
O4 S1 C5 106.15(11)
O3 S1 C5 108.53(12)
C22 S1 C5 104.64(12)
C6 N1 C1 110.2(2)
C19 O2 C20 115.6(2)
N1 C1 C21 110.9(2)
N1 C1 C4 106.2(2)
C21 C1 C4 119.9(2)
N1 C1 C2 113.94(19)
C21 C1 C2 114.9(2)
C4 C1 C2 89.41(16)
C19 C2 C3 116.8(2)
C19 C2 C1 117.44(19)
C3 C2 C1 89.26(17)
C19 C2 H2 110.6
C3 C2 H2 110.6
C1 C2 H2 110.6
C13 C3 C2 119.2(2)
C13 C3 C4 117.99(19)
C2 C3 C4 89.22(17)
C13 C3 H3 109.6
C2 C3 H3 109.6
C4 C3 H3 109.6
C5 C4 C1 104.80(18)
C5 C4 C3 114.4(2)
C1 C4 C3 89.29(17)
C5 C4 H4 115.1
C1 C4 H4 115.1
C3 C4 H4 115.1
C4 C5 C6 101.81(19)
C4 C5 S1 112.85(17)
C6 C5 S1 111.88(15)
C4 C5 H5 110.0
C6 C5 H5 110.0
S1 C5 H5 110.0
N1 C6 C7 122.2(2)
N1 C6 C5 115.2(2)
C7 C6 C5 122.5(2)
C8 C7 C12 119.3(2)
C8 C7 C6 122.0(2)
C12 C7 C6 118.7(2)
C7 C8 C9 120.0(3)
C7 C8 H8 120.0
C9 C8 H8 120.0
C10 C9 C8 120.2(3)
C10 C9 H9 119.9
C8 C9 H9 119.9
C11 C10 C9 120.1(3)
C11 C10 H10 120.0
C9 C10 H10 120.0
C10 C11 C12 120.2(3)
C10 C11 H11 119.9
C12 C11 H11 119.9
C11 C12 C7 120.1(3)
C11 C12 H12 119.9
C7 C12 H12 119.9
C14 C13 C18 118.5(2)
C14 C13 C3 121.3(2)
C18 C13 C3 120.2(2)
C13 C14 C15 120.7(3)
C13 C14 H14 119.6
C15 C14 H14 119.6
C16 C15 C14 120.2(3)
C16 C15 H15 119.9
C14 C15 H15 119.9
C15 C16 C17 119.7(3)
C15 C16 H16 120.1
C17 C16 H16 120.1
C16 C17 C18 120.0(3)
C16 C17 H17 120.0
C18 C17 H17 120.0
C13 C18 C17 120.8(3)
C13 C18 H18 119.6
C17 C18 H18 119.6
O1 C19 O2 123.7(2)
O1 C19 C2 124.3(2)
O2 C19 C2 112.0(2)
O2 C20 H20A 109.5
O2 C20 H20B 109.5
H20A C20 H20B 109.5
O2 C20 H20C 109.5
H20A C20 H20C 109.5
H20B C20 H20C 109.5
F3 C21 F1 106.4(2)
F3 C21 F2 107.1(2)
F1 C21 F2 105.2(2)
F3 C21 C1 113.5(2)
F1 C21 C1 111.2(2)
F2 C21 C1 112.9(2)
C27 C22 C23 119.5(3)
C27 C22 S1 120.9(2)
C23 C22 S1 119.6(2)
C24 C23 C22 120.0(3)
C24 C23 H23 120.0
C22 C23 H23 120.0
C25 C24 C23 121.3(3)
C25 C24 H24 119.3
C23 C24 H24 119.3
C24 C25 C26 118.4(4)
C24 C25 C28 120.0(4)
C26 C25 C28 121.6(4)
C25 C26 C27 121.6(3)
C25 C26 H26 119.2
C27 C26 H26 119.2
C22 C27 C26 119.2(3)
C22 C27 H27 120.4
C26 C27 H27 120.4
C25 C28 H28A 109.5
C25 C28 H28B 109.5
H28A C28 H28B 109.5
C25 C28 H28C 109.5
H28A C28 H28C 109.5
H28B C28 H28C 109.5
loop_
_geom_bond_atom_site_label_1
_geom_bond_atom_site_label_2
_geom_bond_distance
S1 O4 1.4281(19)
S1 O3 1.442(2)
S1 C22 1.747(3)
S1 C5 1.821(2)
F1 C21 1.334(3)
F2 C21 1.335(3)
F3 C21 1.320(3)
N1 C6 1.279(3)
N1 C1 1.460(3)
O1 C19 1.191(3)
O2 C19 1.329(3)
O2 C20 1.457(3)
C1 C21 1.500(4)
C1 C4 1.549(3)
C1 C2 1.562(3)
C2 C19 1.499(3)
C2 C3 1.552(3)
C2 H2 0.9800
C3 C13 1.504(3)
C3 C4 1.564(3)
C3 H3 0.9800
C4 C5 1.519(3)
C4 H4 0.9800
C5 C6 1.522(3)
C5 H5 0.9800
C6 C7 1.479(3)
C7 C8 1.377(4)
C7 C12 1.381(3)
C8 C9 1.382(4)
C8 H8 0.9300
C9 C10 1.367(4)
C9 H9 0.9300
C10 C11 1.365(4)
C10 H10 0.9300
C11 C12 1.379(4)
C11 H11 0.9300
C12 H12 0.9300
C13 C14 1.379(4)
C13 C18 1.380(3)
C14 C15 1.386(4)
C14 H14 0.9300
C15 C16 1.367(4)
C15 H15 0.9300
C16 C17 1.374(4)
C16 H16 0.9300
C17 C18 1.385(4)
C17 H17 0.9300
C18 H18 0.9300
C20 H20A 0.9600
C20 H20B 0.9600
C20 H20C 0.9600
C22 C27 1.372(4)
C22 C23 1.384(4)
C23 C24 1.377(4)
C23 H23 0.9300
C24 C25 1.362(5)
C24 H24 0.9300
C25 C26 1.370(5)
C25 C28 1.524(5)
C26 C27 1.388(5)
C26 H26 0.9300
C27 H27 0.9300
C28 H28A 0.9600
C28 H28B 0.9600
C28 H28C 0.9600
loop_
_geom_torsion_atom_site_label_1
_geom_torsion_atom_site_label_2
_geom_torsion_atom_site_label_3
_geom_torsion_atom_site_label_4
_geom_torsion
C6 N1 C1 C21 123.6(2)
C6 N1 C1 C4 -8.1(2)
C6 N1 C1 C2 -104.9(2)
N1 C1 C2 C19 -25.2(3)
C21 C1 C2 C19 104.3(3)
C4 C1 C2 C19 -132.8(2)
N1 C1 C2 C3 94.8(2)
C21 C1 C2 C3 -135.7(2)
C4 C1 C2 C3 -12.69(18)
C19 C2 C3 C13 -104.8(3)
C1 C2 C3 C13 134.6(2)
C19 C2 C3 C4 133.2(2)
C1 C2 C3 C4 12.57(18)
N1 C1 C4 C5 12.9(2)
C21 C1 C4 C5 -113.6(2)
C2 C1 C4 C5 127.71(19)
N1 C1 C4 C3 -102.23(19)
C21 C1 C4 C3 131.3(2)
C2 C1 C4 C3 12.59(18)
C13 C3 C4 C5 118.3(2)
C2 C3 C4 C5 -118.6(2)
C13 C3 C4 C1 -135.8(2)
C2 C3 C4 C1 -12.67(18)
C1 C4 C5 C6 -12.3(2)
C3 C4 C5 C6 83.8(2)
C1 C4 C5 S1 107.83(18)
C3 C4 C5 S1 -156.08(16)
O4 S1 C5 C4 43.6(2)
O3 S1 C5 C4 -85.71(19)
C22 S1 C5 C4 158.04(17)
O4 S1 C5 C6 157.72(19)
O3 S1 C5 C6 28.4(2)
C22 S1 C5 C6 -87.8(2)
C1 N1 C6 C7 -176.9(2)
C1 N1 C6 C5 -0.2(3)
C4 C5 C6 N1 8.4(3)
S1 C5 C6 N1 -112.3(2)
C4 C5 C6 C7 -174.8(2)
S1 C5 C6 C7 64.4(3)
N1 C6 C7 C8 -143.3(3)
C5 C6 C7 C8 40.2(3)
N1 C6 C7 C12 38.1(3)
C5 C6 C7 C12 -138.4(2)
C12 C7 C8 C9 0.0(4)
C6 C7 C8 C9 -178.6(2)
C7 C8 C9 C10 0.8(4)
C8 C9 C10 C11 -0.3(5)
C9 C10 C11 C12 -0.9(5)
C10 C11 C12 C7 1.8(4)
C8 C7 C12 C11 -1.3(4)
C6 C7 C12 C11 177.4(2)
C2 C3 C13 C14 -53.4(3)
C4 C3 C13 C14 52.9(3)
C2 C3 C13 C18 128.2(3)
C4 C3 C13 C18 -125.5(3)
C18 C13 C14 C15 -0.2(4)
C3 C13 C14 C15 -178.6(2)
C13 C14 C15 C16 0.6(4)
C14 C15 C16 C17 -0.8(5)
C15 C16 C17 C18 0.5(5)
C14 C13 C18 C17 -0.1(4)
C3 C13 C18 C17 178.3(2)
C16 C17 C18 C13 -0.1(4)
C20 O2 C19 O1 -3.0(4)
C20 O2 C19 C2 177.1(2)
C3 C2 C19 O1 12.9(4)
C1 C2 C19 O1 117.1(3)
C3 C2 C19 O2 -167.2(2)
C1 C2 C19 O2 -63.0(3)
N1 C1 C21 F3 -43.6(3)
C4 C1 C21 F3 80.7(3)
C2 C1 C21 F3 -174.6(2)
N1 C1 C21 F1 -163.5(2)
C4 C1 C21 F1 -39.2(3)
C2 C1 C21 F1 65.5(3)
N1 C1 C21 F2 78.5(3)
C4 C1 C21 F2 -157.2(2)
C2 C1 C21 F2 -52.5(3)
O4 S1 C22 C27 -140.0(2)
O3 S1 C22 C27 -8.9(3)
C5 S1 C22 C27 107.1(2)
O4 S1 C22 C23 41.8(3)
O3 S1 C22 C23 172.9(2)
C5 S1 C22 C23 -71.1(2)
C27 C22 C23 C24 -0.9(4)
S1 C22 C23 C24 177.4(2)
C22 C23 C24 C25 1.4(5)
C23 C24 C25 C26 -1.2(5)
C23 C24 C25 C28 178.2(3)
C24 C25 C26 C27 0.6(5)
C28 C25 C26 C27 -178.9(3)
C23 C22 C27 C26 0.2(4)
S1 C22 C27 C26 -178.0(2)
C25 C26 C27 C22 -0.1(5)
