#------------------------------------------------------------------------------
#$Date: 2016-03-13 15:27:14 +0200 (Sun, 13 Mar 2016) $
#$Revision: 178181 $
#$URL: svn://www.crystallography.net/cod/cif/1/54/28/1542822.cif $
#------------------------------------------------------------------------------
#
# This file is available in the Crystallography Open Database (COD),
# http://www.crystallography.net/
#
# All data on this site have been placed in the public domain by the
# contributors.
#
data_1542822
loop_
_publ_author_name
'Bolla, Geetha'
'Mittapalli, Sudhir'
'Nangia, Ashwini'
_publ_section_title
;
 Modularity and three-dimensional isostructurality of novel synthons in
 sulfonamide--lactam cocrystals
;
_journal_coeditor_code           ZX5004
_journal_issue                   4
_journal_name_full               IUCrJ
_journal_page_first              389
_journal_page_last               401
_journal_paper_doi               10.1107/S2052252515004960
_journal_volume                  2
_journal_year                    2015
_chemical_formula_moiety         C7H9NO2S,C5H9NO
_chemical_formula_sum            'C12 H18 N2 O3 S'
_chemical_formula_weight         270.34
_chemical_melting_point          347
_chemical_name_systematic
; 
 ? 
;
_space_group_IT_number           2
_symmetry_cell_setting           triclinic
_symmetry_space_group_name_Hall  '-P 1'
_symmetry_space_group_name_H-M   'P -1'
_atom_sites_solution_hydrogens   geom
_atom_sites_solution_primary     direct
_atom_sites_solution_secondary   difmap
_audit_creation_method           SHELXL-97
_cell_angle_alpha                82.894(8)
_cell_angle_beta                 82.798(8)
_cell_angle_gamma                81.772(8)
_cell_formula_units_Z            2
_cell_length_a                   5.210(3)
_cell_length_b                   8.449(4)
_cell_length_c                   16.104(8)
_cell_measurement_reflns_used    1964
_cell_measurement_temperature    298(2)
_cell_measurement_theta_max      23.82
_cell_measurement_theta_min      2.45
_cell_volume                     692.0(6)
_computing_structure_refinement  'SHELXL-97 (Sheldrick, 1997)'
_computing_structure_solution    'SHELXS-97 (Sheldrick, 1990)'
_diffrn_ambient_temperature      298(2)
_diffrn_measured_fraction_theta_full 0.991
_diffrn_measured_fraction_theta_max 0.991
_diffrn_measurement_device_type  'CCD area detector'
_diffrn_measurement_method       'phi and omega scans'
_diffrn_radiation_monochromator  graphite
_diffrn_radiation_source         'fine-focus sealed tube'
_diffrn_radiation_type           MoK\a
_diffrn_radiation_wavelength     0.71073
_diffrn_reflns_av_R_equivalents  0.0234
_diffrn_reflns_av_sigmaI/netI    0.0300
_diffrn_reflns_limit_h_max       6
_diffrn_reflns_limit_h_min       -6
_diffrn_reflns_limit_k_max       10
_diffrn_reflns_limit_k_min       -10
_diffrn_reflns_limit_l_max       19
_diffrn_reflns_limit_l_min       -20
_diffrn_reflns_number            7341
_diffrn_reflns_theta_full        26.37
_diffrn_reflns_theta_max         26.37
_diffrn_reflns_theta_min         1.28
_exptl_absorpt_coefficient_mu    0.236
_exptl_absorpt_correction_type   none
_exptl_crystal_colour            COLORLES
_exptl_crystal_density_diffrn    1.298
_exptl_crystal_density_method    'not measured'
_exptl_crystal_description       PLATE
_exptl_crystal_F_000             288
_exptl_crystal_size_max          0.22
_exptl_crystal_size_mid          0.20
_exptl_crystal_size_min          0.20
_refine_diff_density_max         0.429
_refine_diff_density_min         -0.146
_refine_diff_density_rms         0.044
_refine_ls_extinction_method     none
_refine_ls_goodness_of_fit_ref   1.042
_refine_ls_hydrogen_treatment    mixed
_refine_ls_matrix_type           full
_refine_ls_number_parameters     176
_refine_ls_number_reflns         2819
_refine_ls_number_restraints     0
_refine_ls_restrained_S_all      1.042
_refine_ls_R_factor_all          0.0734
_refine_ls_R_factor_gt           0.0504
_refine_ls_shift/su_max          0.001
_refine_ls_shift/su_mean         0.000
_refine_ls_structure_factor_coef Fsqd
_refine_ls_weighting_details
'calc w=1/[\s^2^(Fo^2^)+(0.0881P)^2^+0.0472P] where P=(Fo^2^+2Fc^2^)/3'
_refine_ls_weighting_scheme      calc
_refine_ls_wR_factor_gt          0.1391
_refine_ls_wR_factor_ref         0.1526
_reflns_number_gt                1969
_reflns_number_total             2819
_reflns_threshold_expression     >2sigma(I)
_cod_data_source_file            zx5004.cif
_cod_data_source_block           PTSAVLM
_cod_depositor_comments
;
The following automatic conversions were performed:

'_symmetry_cell_setting' value 'Triclinic' changed to 'triclinic'
according to
/usr/data/users/saulius/automatic-downloads/current/IUCr/lib/dictionaries/cif_core.dic
dictionary named 'cif_core.dic' version 2.4.2 from 2011-04-26.

Automatic conversion script
Id: cif_fix_values 4287 2015-11-16 14:04:37Z antanas 
;
_cod_original_sg_symbol_H-M      P-1
_cod_database_code               1542822
_publcif_datablock.id            {7e11362c-8d94-464e-b874-a95e4fa90ee4}
loop_
_symmetry_equiv_pos_as_xyz
'x, y, z'
'-x, -y, -z'
loop_
_atom_site_label
_atom_site_type_symbol
_atom_site_fract_x
_atom_site_fract_y
_atom_site_fract_z
_atom_site_U_iso_or_equiv
_atom_site_adp_type
_atom_site_occupancy
_atom_site_symmetry_multiplicity
_atom_site_calc_flag
_atom_site_refinement_flags
S1 S 1.10112(11) 0.19293(7) 0.72741(4) 0.0619(3) Uani 1 1 d .
O3 O 0.8702(3) 0.41356(19) 0.91796(10) 0.0688(5) Uani 1 1 d .
N2 N 0.7568(4) 0.6588(2) 0.95856(14) 0.0597(5) Uani 1 1 d .
C8 C 0.7356(4) 0.5482(3) 0.91038(14) 0.0537(5) Uani 1 1 d .
N1 N 0.8887(4) 0.1678(3) 0.80706(15) 0.0599(5) Uani 1 1 d .
C1 C 1.0056(4) 0.3814(3) 0.67244(14) 0.0535(5) Uani 1 1 d .
O2 O 1.0896(4) 0.0718(2) 0.67443(13) 0.0934(7) Uani 1 1 d .
O1 O 1.3393(3) 0.2030(2) 0.76034(15) 0.0947(7) Uani 1 1 d .
C12 C 0.6188(5) 0.8210(3) 0.95606(18) 0.0737(7) Uani 1 1 d .
H12A H 0.7382 0.8964 0.9311 0.088 Uiso 1 1 calc R
H12B H 0.5601 0.8456 1.0132 0.088 Uiso 1 1 calc R
C4 C 0.8259(5) 0.6833(3) 0.59678(16) 0.0682(7) Uani 1 1 d .
C11 C 0.3906(6) 0.8430(4) 0.9073(2) 0.0909(9) Uani 1 1 d .
H11A H 0.2450 0.8012 0.9425 0.109 Uiso 1 1 calc R
H11B H 0.3405 0.9571 0.8924 0.109 Uiso 1 1 calc R
C6 C 1.1026(5) 0.5156(3) 0.68710(19) 0.0790(8) Uani 1 1 d .
H6 H 1.2325 0.5064 0.7227 0.095 Uiso 1 1 calc R
C2 C 0.8195(6) 0.3973(3) 0.61818(17) 0.0821(8) Uani 1 1 d .
H2 H 0.7526 0.3073 0.6062 0.099 Uiso 1 1 calc R
C10 C 0.4426(7) 0.7627(4) 0.8306(2) 0.1003(11) Uani 1 1 d .
H10A H 0.5719 0.8144 0.7922 0.120 Uiso 1 1 calc R
H10B H 0.2837 0.7751 0.8036 0.120 Uiso 1 1 calc R
C9 C 0.5402(5) 0.5845(3) 0.84744(16) 0.0707(7) Uani 1 1 d .
H9A H 0.3924 0.5270 0.8677 0.085 Uiso 1 1 calc R
H9B H 0.6190 0.5450 0.7949 0.085 Uiso 1 1 calc R
C5 C 1.0095(6) 0.6651(3) 0.64949(19) 0.0792(8) Uani 1 1 d .
H5 H 1.0762 0.7554 0.6611 0.095 Uiso 1 1 calc R
C7 C 0.7207(7) 0.8483(4) 0.5574(2) 0.1055(11) Uani 1 1 d .
H7A H 0.8460 0.9213 0.5573 0.158 Uiso 1 1 calc R
H7B H 0.5606 0.8866 0.5893 0.158 Uiso 1 1 calc R
H7C H 0.6889 0.8415 0.5006 0.158 Uiso 1 1 calc R
C3 C 0.7320(7) 0.5486(4) 0.5813(2) 0.0975(10) Uani 1 1 d .
H3 H 0.6047 0.5589 0.5447 0.117 Uiso 1 1 calc R
H1A H 0.756(5) 0.158(3) 0.7922(15) 0.054(7) Uiso 1 1 d .
H1B H 0.885(5) 0.240(3) 0.8399(16) 0.071(9) Uiso 1 1 d .
H2A H 0.850(5) 0.637(3) 0.9921(16) 0.058(7) Uiso 1 1 d .
loop_
_atom_site_aniso_label
_atom_site_aniso_U_11
_atom_site_aniso_U_22
_atom_site_aniso_U_33
_atom_site_aniso_U_23
_atom_site_aniso_U_13
_atom_site_aniso_U_12
S1 0.0507(4) 0.0481(4) 0.0836(5) 0.0001(3) -0.0138(3) 0.0045(2)
O3 0.0761(11) 0.0595(10) 0.0727(11) -0.0121(8) -0.0338(9) 0.0114(8)
N2 0.0561(12) 0.0552(12) 0.0694(13) -0.0061(10) -0.0288(11) 0.0057(9)
C8 0.0486(12) 0.0555(13) 0.0563(13) 0.0003(11) -0.0154(10) -0.0016(10)
N1 0.0556(13) 0.0507(12) 0.0747(15) 0.0014(10) -0.0215(11) -0.0055(9)
C1 0.0452(11) 0.0502(12) 0.0630(14) -0.0021(10) -0.0085(10) 0.0000(9)
O2 0.1218(17) 0.0521(10) 0.1003(14) -0.0214(10) -0.0043(12) 0.0137(10)
O1 0.0483(10) 0.0814(13) 0.1487(18) 0.0282(12) -0.0358(11) -0.0023(8)
C12 0.0704(16) 0.0559(14) 0.0935(19) -0.0057(13) -0.0284(14) 0.0117(12)
C4 0.0780(17) 0.0606(15) 0.0592(14) 0.0070(11) -0.0071(13) 0.0017(12)
C11 0.087(2) 0.0695(18) 0.114(2) -0.0013(17) -0.0433(18) 0.0168(14)
C6 0.0770(18) 0.0620(16) 0.105(2) 0.0058(14) -0.0459(16) -0.0155(13)
C2 0.111(2) 0.0632(17) 0.0815(18) -0.0033(14) -0.0445(17) -0.0175(15)
C10 0.116(3) 0.093(2) 0.089(2) -0.0051(17) -0.0550(19) 0.0324(18)
C9 0.0697(16) 0.0709(16) 0.0732(16) -0.0021(13) -0.0332(13) 0.0026(12)
C5 0.091(2) 0.0518(15) 0.098(2) 0.0037(14) -0.0275(17) -0.0144(13)
C7 0.127(3) 0.077(2) 0.100(2) 0.0254(17) -0.025(2) 0.0079(18)
C3 0.123(3) 0.082(2) 0.094(2) 0.0120(17) -0.067(2) -0.0061(18)
loop_
_atom_type_symbol
_atom_type_description
_atom_type_scat_dispersion_real
_atom_type_scat_dispersion_imag
_atom_type_scat_source
C C 0.0033 0.0016 'International Tables Vol C Tables 4.2.6.8 and 6.1.1.4'
H H 0.0000 0.0000 'International Tables Vol C Tables 4.2.6.8 and 6.1.1.4'
N N 0.0061 0.0033 'International Tables Vol C Tables 4.2.6.8 and 6.1.1.4'
O O 0.0106 0.0060 'International Tables Vol C Tables 4.2.6.8 and 6.1.1.4'
S S 0.1246 0.1234 'International Tables Vol C Tables 4.2.6.8 and 6.1.1.4'
loop_
_geom_angle_atom_site_label_1
_geom_angle_atom_site_label_2
_geom_angle_atom_site_label_3
_geom_angle
O2 S1 O1 119.81(13)
O2 S1 N1 107.32(14)
O1 S1 N1 106.20(14)
O2 S1 C1 108.18(12)
O1 S1 C1 107.38(11)
N1 S1 C1 107.36(10)
C8 N2 C12 127.3(2)
C8 N2 H2A 117.7(19)
C12 N2 H2A 115.0(19)
O3 C8 N2 120.9(2)
O3 C8 C9 120.4(2)
N2 C8 C9 118.7(2)
S1 N1 H1A 110.0(17)
S1 N1 H1B 110.7(17)
H1A N1 H1B 116(3)
C6 C1 C2 118.7(2)
C6 C1 S1 120.85(19)
C2 C1 S1 120.30(19)
N2 C12 C11 112.7(2)
N2 C12 H12A 109.1
C11 C12 H12A 109.1
N2 C12 H12B 109.1
C11 C12 H12B 109.1
H12A C12 H12B 107.8
C5 C4 C3 117.7(2)
C5 C4 C7 121.2(3)
C3 C4 C7 121.1(3)
C10 C11 C12 112.8(3)
C10 C11 H11A 109.0
C12 C11 H11A 109.0
C10 C11 H11B 109.0
C12 C11 H11B 109.0
H11A C11 H11B 107.8
C1 C6 C5 120.5(2)
C1 C6 H6 119.7
C5 C6 H6 119.7
C1 C2 C3 119.2(3)
C1 C2 H2 120.4
C3 C2 H2 120.4
C11 C10 C9 112.7(2)
C11 C10 H10A 109.1
C9 C10 H10A 109.1
C11 C10 H10B 109.1
C9 C10 H10B 109.1
H10A C10 H10B 107.8
C8 C9 C10 113.6(2)
C8 C9 H9A 108.8
C10 C9 H9A 108.8
C8 C9 H9B 108.8
C10 C9 H9B 108.8
H9A C9 H9B 107.7
C4 C5 C6 121.6(3)
C4 C5 H5 119.2
C6 C5 H5 119.2
C4 C7 H7A 109.5
C4 C7 H7B 109.5
H7A C7 H7B 109.5
C4 C7 H7C 109.5
H7A C7 H7C 109.5
H7B C7 H7C 109.5
C4 C3 C2 122.3(3)
C4 C3 H3 118.9
C2 C3 H3 118.9
loop_
_geom_bond_atom_site_label_1
_geom_bond_atom_site_label_2
_geom_bond_distance
S1 O2 1.423(2)
S1 O1 1.426(2)
S1 N1 1.600(2)
S1 C1 1.762(2)
O3 C8 1.249(3)
N2 C8 1.311(3)
N2 C12 1.452(3)
N2 H2A 0.76(3)
C8 C9 1.500(3)
N1 H1A 0.78(3)
N1 H1B 0.85(3)
C1 C6 1.362(3)
C1 C2 1.366(3)
C12 C11 1.483(4)
C12 H12A 0.9700
C12 H12B 0.9700
C4 C5 1.337(4)
C4 C3 1.362(4)
C4 C7 1.516(3)
C11 C10 1.459(4)
C11 H11A 0.9700
C11 H11B 0.9700
C6 C5 1.381(4)
C6 H6 0.9300
C2 C3 1.381(4)
C2 H2 0.9300
C10 C9 1.521(4)
C10 H10A 0.9700
C10 H10B 0.9700
C9 H9A 0.9700
C9 H9B 0.9700
C5 H5 0.9300
C7 H7A 0.9600
C7 H7B 0.9600
C7 H7C 0.9600
C3 H3 0.9300
