#------------------------------------------------------------------------------
#$Date: 2017-02-04 16:02:23 +0200 (Sat, 04 Feb 2017) $
#$Revision: 191664 $
#$URL: file:///home/coder/svn-repositories/cod/cif/1/54/49/1544973.cif $
#------------------------------------------------------------------------------
#
# This file is available in the Crystallography Open Database (COD),
# http://www.crystallography.net/
#
# All data on this site have been placed in the public domain by the
# contributors.
#
data_1544973
loop_
_publ_author_name
'Swarnakar, Anindya K.'
'Ferguson, Michael J.'
'McDonald, Robert'
'Rivard, Eric'
_publ_section_title
;
 Azido- and amido-substituted gallium hydrides supported by N-heterocyclic
 carbenes.
;
_journal_issue                   5
_journal_name_full
'Dalton transactions (Cambridge, England : 2003)'
_journal_page_first              1406
_journal_page_last               1412
_journal_paper_doi               10.1039/c6dt04595b
_journal_volume                  46
_journal_year                    2017
_chemical_formula_moiety         'C34 H54 Cl F3 Ga N3 O3 S Si2'
_chemical_formula_sum            'C34 H54 Cl F3 Ga N3 O3 S Si2'
_chemical_formula_weight         803.21
_space_group_crystal_system      monoclinic
_space_group_IT_number           14
_space_group_name_Hall           '-P 2yn'
_space_group_name_H-M_alt        'P 1 21/n 1'
_symmetry_space_group_name_Hall  '-P 2yn'
_symmetry_space_group_name_H-M   'P 1 21/n 1'
_atom_sites_solution_hydrogens   geom
_audit_creation_method           SHELXL-2014/7
_audit_update_record
;
2016-11-28 deposited with the CCDC.
2017-01-02 downloaded from the CCDC.
;
_cell_angle_alpha                90
_cell_angle_beta                 91.6950(12)
_cell_angle_gamma                90
_cell_formula_units_Z            4
_cell_length_a                   11.1905(2)
_cell_length_b                   22.5860(4)
_cell_length_c                   16.2428(3)
_cell_measurement_reflns_used    9974
_cell_measurement_temperature    173(2)
_cell_measurement_theta_max      73.86
_cell_measurement_theta_min      3.91
_cell_volume                     4103.55(13)
_computing_cell_refinement       'Bruker SAINT'
_computing_data_collection       'Bruker APEX2'
_computing_data_reduction        'Bruker SAINT'
_computing_molecular_graphics    'Bruker SHELXTL'
_computing_publication_material  'Bruker SHELXTL'
_computing_structure_refinement  'SHELXL-2014/7 (Sheldrick, 2014)'
_computing_structure_solution    'SHELXD (Schneider & Sheldrick, 2002)'
_diffrn_ambient_temperature      173(2)
_diffrn_measured_fraction_theta_full 0.991
_diffrn_measured_fraction_theta_max 0.986
_diffrn_measurement_device_type  'Bruker APEX-II CCD'
_diffrn_measurement_method       '\f and \w scans'
_diffrn_radiation_type           CuK\a
_diffrn_radiation_wavelength     1.54178
_diffrn_reflns_av_R_equivalents  0.0581
_diffrn_reflns_av_unetI/netI     0.0452
_diffrn_reflns_Laue_measured_fraction_full 0.991
_diffrn_reflns_Laue_measured_fraction_max 0.986
_diffrn_reflns_limit_h_max       13
_diffrn_reflns_limit_h_min       -13
_diffrn_reflns_limit_k_max       28
_diffrn_reflns_limit_k_min       -28
_diffrn_reflns_limit_l_max       19
_diffrn_reflns_limit_l_min       -18
_diffrn_reflns_number            26507
_diffrn_reflns_point_group_measured_fraction_full 0.991
_diffrn_reflns_point_group_measured_fraction_max 0.986
_diffrn_reflns_theta_full        67.679
_diffrn_reflns_theta_max         74.076
_diffrn_reflns_theta_min         3.352
_exptl_absorpt_coefficient_mu    2.959
_exptl_absorpt_correction_T_max  0.7568
_exptl_absorpt_correction_T_min  0.5956
_exptl_absorpt_correction_type   numerical
_exptl_absorpt_process_details   'SADABS 2014/5'
_exptl_crystal_colour            colourless
_exptl_crystal_density_diffrn    1.300
_exptl_crystal_description       fragment
_exptl_crystal_F_000             1688
_exptl_crystal_size_max          0.239
_exptl_crystal_size_mid          0.214
_exptl_crystal_size_min          0.149
_refine_diff_density_max         0.597
_refine_diff_density_min         -0.549
_refine_diff_density_rms         0.077
_refine_ls_extinction_method     none
_refine_ls_goodness_of_fit_ref   1.097
_refine_ls_hydrogen_treatment    constr
_refine_ls_matrix_type           full
_refine_ls_number_parameters     475
_refine_ls_number_reflns         8220
_refine_ls_number_restraints     23
_refine_ls_restrained_S_all      1.095
_refine_ls_R_factor_all          0.0756
_refine_ls_R_factor_gt           0.0552
_refine_ls_shift/su_max          0.000
_refine_ls_shift/su_mean         0.000
_refine_ls_structure_factor_coef Fsqd
_refine_ls_weighting_details
'w=1/[\s^2^(Fo^2^)+(0.0610P)^2^+6.2812P] where P=(Fo^2^+2Fc^2^)/3'
_refine_ls_weighting_scheme      calc
_refine_ls_wR_factor_gt          0.1382
_refine_ls_wR_factor_ref         0.1572
_reflns_Friedel_coverage         0.000
_reflns_number_gt                6507
_reflns_number_total             8220
_reflns_threshold_expression     'I > 2\s(I)'
_cod_data_source_file            c6dt04595b2.cif
_cod_data_source_block           riv1612_IPrGaClOTfNTMS2_cmpd_5
_cod_depositor_comments
'Adding full bibliography for 1544973--1544977.cif.'
_cod_database_code               1544973
_shelx_shelxl_version_number     2014/7
_shelx_space_group_comment
; 
The symmetry employed for this shelxl refinement is uniquely defined 
by the following loop, which should always be used as a source of 
symmetry information in preference to the above space-group names. 
They are only intended as comments. 
;
_shelx_estimated_absorpt_t_min   0.538
_shelx_estimated_absorpt_t_max   0.667
_shelx_res_file
; 
  
    riv1612.res created by SHELXL-2014/7 
  
  
TITL riv1612 in P2(1)/n 
CELL 1.54178 11.1905 22.5860 16.2428 90.0 91.6950 90.0 
ZERR    4.00  0.0002  0.0004  0.0003  0.0  0.0012  0.0 
LATT 1 
SYMM 0.5-X, 0.5+Y, 0.5-Z 
SFAC C   H   N  O  F  SI S CL GA 
UNIT 136 216 12 12 12 8  4 4  4 
SIZE 0.149 0.214 0.239 
TEMP -100 
SADI 0.01 GAA CLA GAB CLB 
SADI 0.01 GAA N3A GAB N3B 
L.S. 4 
ACTA 
CONF 2.2 
WGHT    0.061000    6.281199 
FVAR       0.08709   0.05676   0.08803 
PART   1 
GAA   9    0.101863    0.324124    0.171583    10.92000    0.02882    0.03354 = 
         0.02760    0.00070    0.00117    0.00184 
PART   2 
GAB   9    0.187634    0.322367    0.207537    10.08000    0.03119 
PART   1 
CLA   8   -0.059562    0.323122    0.094561    10.92000    0.03607    0.12156 = 
         0.03493   -0.00224   -0.00870    0.00334 
PART   2 
CLB   8    0.336091    0.323788    0.296640    10.08000   21.00000 
PART   0 
S     7    0.225202    0.216671    0.086237    11.00000    0.04890    0.03454 = 
         0.04404   -0.00688    0.01022    0.00533 
F1    5    0.155793    0.141531   -0.024016    11.00000    0.12134    0.13069 = 
         0.11368   -0.09158    0.03573   -0.02716 
F2    5    0.094357    0.123293    0.096250    11.00000    0.22042    0.11862 = 
         0.17460   -0.05916    0.09509   -0.10501 
F3    5    0.016059    0.191889    0.023740    11.00000    0.07598    0.27017 = 
         0.25567   -0.21108   -0.04631    0.03203 
O1    4    0.163767    0.243346    0.156654    11.00000    0.05309    0.03286 = 
         0.03870   -0.00672    0.01059   -0.00225 
O2    4    0.247647    0.257910    0.022842    11.00000    0.11027    0.04783 = 
         0.05127   -0.00197    0.03951    0.00558 
O3    4    0.321523    0.179296    0.111187    11.00000    0.09779    0.06960 = 
         0.07746   -0.01000   -0.00520    0.04771 
N1    3    0.013917    0.362826    0.341125    11.00000    0.03491    0.02733 = 
         0.03060   -0.00101    0.00117    0.00448 
N2    3   -0.009439    0.269190    0.322981    11.00000    0.03742    0.02734 = 
         0.02977    0.00295    0.00581    0.00336 
C1    1    0.035917    0.318167    0.287174    11.00000    0.02982    0.02608 = 
         0.03000   -0.00091   -0.00185    0.00361 
C2    1   -0.043621    0.341341    0.408717    11.00000    0.04910    0.03792 = 
         0.02996   -0.00054    0.00916    0.00768 
AFIX  43 
H2    2   -0.068323    0.363746    0.454699    11.00000   -1.20000 
AFIX   0 
C3    1   -0.058311    0.282901    0.397571    11.00000    0.04552    0.03719 = 
         0.03305    0.00422    0.01235    0.00334 
AFIX  43 
H3    2   -0.095270    0.256118    0.434046    11.00000   -1.20000 
AFIX   0 
C4    1    0.113970    0.167512    0.041461    11.00000    0.09426    0.09435 = 
         0.09469   -0.06209    0.03792   -0.02995 
PART   1 
SAME 0.01 0.01 SI1B > C10B 
SI1A  6    0.355422    0.372692    0.200138    10.92000    0.02996    0.02982 = 
         0.04812    0.00169    0.00144    0.00288 
SI2A  6    0.211924    0.420638    0.054806    10.92000    0.04078    0.03636 = 
         0.04050    0.01022    0.00816    0.00584 
N3A   3    0.221616    0.375399    0.141842    10.92000    0.03404    0.02791 = 
         0.03579    0.00463    0.00610    0.00516 
C5A   1    0.340168    0.324190    0.293961    10.92000    0.03192    0.06984 = 
         0.05003    0.00309   -0.00976    0.00159 
AFIX 137 
H5A   2    0.274051    0.338614    0.326744    10.92000   -1.20000 
H5B   2    0.414583    0.325432    0.327274    10.92000   -1.20000 
H5C   2    0.323953    0.283358    0.276547    10.92000   -1.20000 
AFIX   0 
C6A   1    0.481569    0.337739    0.144985    10.92000    0.03495    0.05969 = 
         0.06917    0.00138    0.00631    0.01561 
AFIX 137 
H6A   2    0.505043    0.363435    0.099614    10.92000   -1.20000 
H6B   2    0.456009    0.299220    0.122981    10.92000   -1.20000 
H6C   2    0.549799    0.332235    0.183442    10.92000   -1.20000 
AFIX   0 
C7A   1    0.402800    0.449290    0.231296    10.92000    0.04648    0.03112 = 
         0.08389   -0.00592   -0.00470   -0.00558 
AFIX 137 
H7A   2    0.428176    0.471127    0.182692    10.92000   -1.20000 
H7B   2    0.469492    0.446898    0.271640    10.92000   -1.20000 
H7C   2    0.335498    0.469889    0.255844    10.92000   -1.20000 
AFIX   0 
C8A   1    0.118389    0.390917   -0.031640    10.92000    0.15638    0.04650 = 
         0.03871    0.00755   -0.01356   -0.00507 
AFIX 137 
H8A   2    0.137035    0.348952   -0.039646    10.92000   -1.20000 
H8B   2    0.134902    0.412916   -0.082050    10.92000   -1.20000 
H8C   2    0.033742    0.395158   -0.018961    10.92000   -1.20000 
AFIX   0 
C9A   1    0.361332    0.431314    0.006907    10.92000    0.05984    0.17343 = 
         0.09975    0.09100    0.02817    0.02749 
AFIX 137 
H9A   2    0.415798    0.451352    0.046188    10.92000   -1.20000 
H9B   2    0.351457    0.455486   -0.042935    10.92000   -1.20000 
H9C   2    0.394608    0.392669   -0.007496    10.92000   -1.20000 
AFIX   0 
C10A  1    0.151268    0.493889    0.082779    10.92000    0.11486    0.03403 = 
         0.05638    0.00432   -0.00625    0.01764 
AFIX 137 
H10A  2    0.068860    0.489310    0.100572    10.92000   -1.20000 
H10B  2    0.152453    0.520196    0.034829    10.92000   -1.20000 
H10C  2    0.200358    0.510964    0.127752    10.92000   -1.20000 
AFIX   0 
PART   2 
SI1B  6    0.362081    0.404298    0.110431    10.08000   21.00000 
SI2B  6    0.099853    0.398249    0.061831    10.08000   21.00000 
N3B   3    0.219518    0.376029    0.125801    10.08000   21.00000 
C5B   1    0.435776    0.429176    0.210877    10.08000   31.00000 
AFIX  33 
H5D   2    0.515577    0.444820    0.200382    10.08000   -1.20000 
H5E   2    0.387194    0.460167    0.235652    10.08000   -1.20000 
H5F   2    0.442738    0.395428    0.248638    10.08000   -1.20000 
AFIX   0 
C6B   1    0.469615    0.348743    0.070614    10.08000   31.00000 
AFIX  33 
H6D   2    0.547492    0.367604    0.063474    10.08000   -1.20000 
H6E   2    0.478322    0.316030    0.109973    10.08000   -1.20000 
H6F   2    0.439467    0.333438    0.017500    10.08000   -1.20000 
AFIX   0 
C7B   1    0.354012    0.467806    0.035894    10.08000   31.00000 
AFIX  33 
H7D   2    0.434590    0.483319    0.027746    10.08000   -1.20000 
H7E   2    0.319665    0.454095   -0.016933    10.08000   -1.20000 
H7F   2    0.303570    0.499154    0.057963    10.08000   -1.20000 
AFIX   0 
C8B   1   -0.044027    0.361278    0.083156    10.08000   31.00000 
AFIX  33 
H8D   2   -0.106380    0.376087    0.044840    10.08000   -1.20000 
H8E   2   -0.035380    0.318418    0.076057    10.08000   -1.20000 
H8F   2   -0.066314    0.369801    0.139835    10.08000   -1.20000 
AFIX   0 
C9B   1    0.123142    0.379677   -0.049091    10.08000   31.00000 
AFIX  33 
H9D   2    0.053873    0.392958   -0.082498    10.08000   -1.20000 
H9E   2    0.195264    0.399614   -0.067744    10.08000   -1.20000 
H9F   2    0.132458    0.336756   -0.054989    10.08000   -1.20000 
AFIX   0 
C10B  1    0.077107    0.479090    0.071695    10.08000   31.00000 
AFIX  33 
H10D  2    0.009826    0.491399    0.035676    10.08000   -1.20000 
H10E  2    0.059797    0.488753    0.128941    10.08000   -1.20000 
H10F  2    0.149655    0.499915    0.055691    10.08000   -1.20000 
AFIX   0 
PART   0 
C11   1    0.034830    0.426094    0.329263    11.00000    0.03842    0.02551 = 
         0.03620   -0.00159    0.00229    0.00293 
C12   1   -0.046186    0.456829    0.277196    11.00000    0.04344    0.03132 = 
         0.03872    0.00390   -0.00012    0.00279 
C13   1   -0.024365    0.517253    0.266989    11.00000    0.05591    0.03205 = 
         0.04763    0.00497    0.00289    0.00394 
AFIX  43 
H13   2   -0.075715    0.539791    0.231473    11.00000   -1.20000 
AFIX   0 
C14   1    0.070025    0.544692    0.307385    11.00000    0.06573    0.03049 = 
         0.05227    0.00004    0.00677   -0.00576 
AFIX  43 
H14   2    0.085314    0.585350    0.297032    11.00000   -1.20000 
AFIX   0 
C15   1    0.142289    0.514506    0.362196    11.00000    0.04796    0.04050 = 
         0.05637   -0.01528    0.00258   -0.00767 
AFIX  43 
H15   2    0.204705    0.534941    0.391142    11.00000   -1.20000 
AFIX   0 
C16   1    0.125669    0.453601    0.376429    11.00000    0.04589    0.03318 = 
         0.04534   -0.01033   -0.00060    0.00395 
C17   1   -0.159575    0.428549    0.242233    11.00000    0.04465    0.03737 = 
         0.05622    0.00865   -0.01203    0.00361 
AFIX  13 
H17   2   -0.142970    0.385685    0.232220    11.00000   -1.20000 
AFIX   0 
C18   1   -0.205950    0.455556    0.162254    11.00000    0.07456    0.06110 = 
         0.07504    0.01720   -0.03502   -0.00579 
AFIX  33 
H18A  2   -0.279007    0.434955    0.143780    11.00000   -1.20000 
H18B  2   -0.223619    0.497562    0.170863    11.00000   -1.20000 
H18C  2   -0.145263    0.451645    0.120316    11.00000   -1.20000 
AFIX   0 
C19   1   -0.258574    0.432898    0.306478    11.00000    0.04401    0.08041 = 
         0.08356    0.00537   -0.00481   -0.00063 
AFIX  33 
H19A  2   -0.229679    0.415538    0.358657    11.00000   -1.20000 
H19B  2   -0.279137    0.474570    0.315114    11.00000   -1.20000 
H19C  2   -0.329607    0.411341    0.286352    11.00000   -1.20000 
AFIX   0 
C20   1    0.193642    0.423491    0.447043    11.00000    0.05216    0.04635 = 
         0.05688   -0.01249   -0.01837    0.00846 
AFIX  13 
H20   2    0.186092    0.379674    0.439749    11.00000   -1.20000 
AFIX   0 
C21   1    0.326899    0.439198    0.452999    11.00000    0.06679    0.07632 = 
         0.07907   -0.01998   -0.03020    0.01175 
AFIX  33 
H21A  2    0.364656    0.418229    0.499747    11.00000   -1.20000 
H21B  2    0.365250    0.427419    0.402066    11.00000   -1.20000 
H21C  2    0.335972    0.481988    0.460993    11.00000   -1.20000 
AFIX   0 
C22   1    0.134377    0.440854    0.528531    11.00000    0.08401    0.07178 = 
         0.04319   -0.00829   -0.01619    0.01873 
AFIX  33 
H22A  2    0.177177    0.421778    0.574877    11.00000   -1.20000 
H22B  2    0.137644    0.483937    0.535400    11.00000   -1.20000 
H22C  2    0.050800    0.427837    0.526890    11.00000   -1.20000 
AFIX   0 
C31   1   -0.014941    0.208499    0.292212    11.00000    0.04224    0.02474 = 
         0.03568    0.00036    0.00230    0.00289 
C32   1   -0.118869    0.189821    0.251041    11.00000    0.04367    0.03005 = 
         0.04504    0.00388   -0.00404    0.00445 
C33   1   -0.126731    0.129916    0.230907    11.00000    0.06102    0.03368 = 
         0.07235   -0.00157   -0.02450    0.00040 
AFIX  43 
H33   2   -0.196358    0.115368    0.202797    11.00000   -1.20000 
AFIX   0 
C34   1   -0.034743    0.091513    0.251271    11.00000    0.07983    0.02679 = 
         0.09178   -0.00469   -0.03317    0.00689 
AFIX  43 
H34   2   -0.041557    0.050897    0.236675    11.00000   -1.20000 
AFIX   0 
C35   1    0.066759    0.111273    0.292450    11.00000    0.05932    0.02798 = 
         0.07067   -0.00096   -0.01893    0.01039 
AFIX  43 
H35   2    0.129450    0.084117    0.305171    11.00000   -1.20000 
AFIX   0 
C36   1    0.079421    0.170242    0.315836    11.00000    0.04139    0.02931 = 
         0.03731    0.00103   -0.00020    0.00286 
C37   1   -0.224982    0.230332    0.230162    11.00000    0.04648    0.03942 = 
         0.04758    0.00661   -0.00506    0.00782 
AFIX  13 
H37   2   -0.195967    0.272202    0.231964    11.00000   -1.20000 
AFIX   0 
C38   1   -0.276466    0.218146    0.143458    11.00000    0.05669    0.05996 = 
         0.05995   -0.00227   -0.01863    0.01618 
AFIX  33 
H38A  2   -0.213338    0.222662    0.103381    11.00000   -1.20000 
H38B  2   -0.307981    0.177687    0.140801    11.00000   -1.20000 
H38C  2   -0.341040    0.246289    0.130680    11.00000   -1.20000 
AFIX   0 
C39   1   -0.321170    0.223629    0.293706    11.00000    0.04982    0.08513 = 
         0.06350    0.01342    0.00495    0.01166 
AFIX  33 
H39A  2   -0.388418    0.249848    0.279439    11.00000   -1.20000 
H39B  2   -0.349003    0.182496    0.294363    11.00000   -1.20000 
H39C  2   -0.288075    0.234222    0.348268    11.00000   -1.20000 
AFIX   0 
C40   1    0.186222    0.189894    0.368036    11.00000    0.04166    0.03453 = 
         0.04611    0.00059   -0.00403    0.00364 
AFIX  13 
H40   2    0.190280    0.234095    0.365906    11.00000   -1.20000 
AFIX   0 
C41   1    0.304591    0.165460    0.338616    11.00000    0.04523    0.04120 = 
         0.06725    0.00327    0.00090    0.00784 
AFIX  33 
H41A  2    0.370015    0.179738    0.374823    11.00000   -1.20000 
H41B  2    0.302512    0.122094    0.339960    11.00000   -1.20000 
H41C  2    0.317325    0.178844    0.282157    11.00000   -1.20000 
AFIX   0 
C42   1    0.167808    0.171622    0.457455    11.00000    0.05575    0.08718 = 
         0.04234    0.00259   -0.00865    0.00497 
AFIX  33 
H42A  2    0.236809    0.184249    0.491634    11.00000   -1.20000 
H42B  2    0.095236    0.190420    0.477408    11.00000   -1.20000 
H42C  2    0.159582    0.128490    0.460610    11.00000   -1.20000 
  
AFIX   0 
HKLF 4 
  
REM  riv1612 in P2(1)/n 
REM R1 =  0.0552 for    6507 Fo > 4sig(Fo)  and  0.0756 for all    8220 data 
REM    475 parameters refined using     23 restraints 
  
END 
  
WGHT      0.0610      6.2811 
  
REM Highest difference peak  0.597,  deepest hole -0.549,  1-sigma level  0.077 
Q1    1   0.0442  0.2380 -0.0038  11.00000  0.05    0.60 
Q2    1   0.2439  0.1617  0.1167  11.00000  0.05    0.49 
Q3    1   0.0639  0.3222  0.2448  11.00000  0.05    0.43 
Q4    1   0.2498  0.3245  0.2391  11.00000  0.05    0.40 
Q5    1  -0.0241  0.3182  0.1796  11.00000  0.05    0.40 
Q6    1   0.1308  0.4489  0.2178  11.00000  0.05    0.37 
Q7    1   0.0240  0.1736  0.0632  11.00000  0.05    0.36 
Q8    1   0.3089  0.2439  0.0519  11.00000  0.05    0.32 
Q9    1   0.3767  0.2156  0.1610  11.00000  0.05    0.31 
Q10   1   0.0070  0.3150  0.1384  11.00000  0.05    0.31 
Q11   1   0.3944  0.4734  0.1368  11.00000  0.05    0.29 
Q12   1   0.2067  0.3208  0.1804  11.00000  0.05    0.29 
Q13   1   0.2017  0.3839 -0.0232  11.00000  0.05    0.28 
Q14   1   0.3588  0.4757  0.0625  11.00000  0.05    0.28 
Q15   1  -0.2725  0.4925  0.1765  11.00000  0.05    0.28 
Q16   1   0.3577  0.2758  0.2041  11.00000  0.05    0.28 
Q17   1   0.0402  0.1891  0.2953  11.00000  0.05    0.28 
Q18   1   0.3625  0.4538  0.3931  11.00000  0.05    0.28 
Q19   1  -0.0136  0.3473  0.1224  11.00000  0.05    0.28 
Q20   1   0.3733  0.4199  0.1404  11.00000  0.05    0.27 
;
_shelx_res_checksum              18718
loop_
_space_group_symop_operation_xyz
'x, y, z'
'-x+1/2, y+1/2, -z+1/2'
'-x, -y, -z'
'x-1/2, -y-1/2, z-1/2'
loop_
_atom_site_label
_atom_site_type_symbol
_atom_site_fract_x
_atom_site_fract_y
_atom_site_fract_z
_atom_site_U_iso_or_equiv
_atom_site_adp_type
_atom_site_occupancy
_atom_site_site_symmetry_order
_atom_site_calc_flag
_atom_site_refinement_flags_posn
_atom_site_refinement_flags_adp
_atom_site_refinement_flags_occupancy
_atom_site_disorder_assembly
_atom_site_disorder_group
GaA Ga 0.10186(4) 0.32412(2) 0.17158(3) 0.02998(13) Uani 0.92 1 d D . P A 1
GaB Ga 0.1876(4) 0.3224(2) 0.2075(3) 0.0312(10) Uiso 0.08 1 d D . P A 2
ClA Cl -0.05956(10) 0.32312(7) 0.09456(7) 0.0644(4) Uani 0.92 1 d D . P A 1
ClB Cl 0.336(4) 0.324(2) 0.297(3) 0.057(2) Uiso 0.08 1 d D U P A 2
S S 0.22520(9) 0.21667(4) 0.08624(6) 0.0423(2) Uani 1 1 d . . . . .
Si1A Si 0.35542(9) 0.37269(4) 0.20014(7) 0.0360(2) Uani 0.92 1 d D . P A 1
Si2A Si 0.21192(10) 0.42064(5) 0.05481(7) 0.0391(2) Uani 0.92 1 d D . P A 1
Si1B Si 0.3621(11) 0.4043(6) 0.1104(9) 0.057(2) Uiso 0.08 1 d D U P A 2
Si2B Si 0.0999(11) 0.3982(6) 0.0618(9) 0.057(2) Uiso 0.08 1 d D U P A 2
F1 F 0.1558(4) 0.14153(19) -0.0240(3) 0.1213(16) Uani 1 1 d . . . . .
F2 F 0.0944(6) 0.1233(2) 0.0962(4) 0.169(3) Uani 1 1 d . . . . .
F3 F 0.0161(4) 0.1919(3) 0.0237(4) 0.202(4) Uani 1 1 d . . . . .
O1 O 0.1638(2) 0.24335(10) 0.15665(15) 0.0414(6) Uani 1 1 d . . . . .
O2 O 0.2476(4) 0.25791(13) 0.0228(2) 0.0691(10) Uani 1 1 d . . . . .
O3 O 0.3215(4) 0.17930(16) 0.1112(2) 0.0818(12) Uani 1 1 d . . . . .
N1 N 0.0139(2) 0.36283(11) 0.34113(16) 0.0309(5) Uani 1 1 d . . . . .
N2 N -0.0094(3) 0.26919(11) 0.32298(16) 0.0314(6) Uani 1 1 d . . . . .
N3A N 0.2216(3) 0.37540(14) 0.1418(2) 0.0325(7) Uani 0.92 1 d D . P A 1
N3B N 0.2195(15) 0.3760(16) 0.126(2) 0.057(2) Uiso 0.08 1 d D U P A 2
C1 C 0.0359(3) 0.31817(13) 0.28717(19) 0.0287(6) Uani 1 1 d . . . . .
C2 C -0.0436(3) 0.34134(15) 0.4087(2) 0.0388(8) Uani 1 1 d . . . . .
H2 H -0.0683 0.3637 0.4547 0.047 Uiso 1 1 calc R U . . .
C3 C -0.0583(3) 0.28290(15) 0.3976(2) 0.0384(7) Uani 1 1 d . . . . .
H3 H -0.0953 0.2561 0.4340 0.046 Uiso 1 1 calc R U . . .
C4 C 0.1140(6) 0.1675(3) 0.0415(4) 0.094(2) Uani 1 1 d . . . . .
C5A C 0.3402(12) 0.3242(9) 0.2940(10) 0.0508(16) Uani 0.92 1 d D . P A 1
H5A H 0.2741 0.3386 0.3267 0.061 Uiso 0.92 1 calc R U P A 1
H5B H 0.4146 0.3254 0.3273 0.061 Uiso 0.92 1 calc R U P A 1
H5C H 0.3240 0.2834 0.2765 0.061 Uiso 0.92 1 calc R U P A 1
C6A C 0.4816(4) 0.3377(2) 0.1450(3) 0.0545(11) Uani 0.92 1 d D . P A 1
H6A H 0.5050 0.3634 0.0996 0.065 Uiso 0.92 1 calc R U P A 1
H6B H 0.4560 0.2992 0.1230 0.065 Uiso 0.92 1 calc R U P A 1
H6C H 0.5498 0.3322 0.1834 0.065 Uiso 0.92 1 calc R U P A 1
C7A C 0.4028(4) 0.44929(17) 0.2313(4) 0.0540(12) Uani 0.92 1 d D . P A 1
H7A H 0.4282 0.4711 0.1827 0.065 Uiso 0.92 1 calc R U P A 1
H7B H 0.4695 0.4469 0.2716 0.065 Uiso 0.92 1 calc R U P A 1
H7C H 0.3355 0.4699 0.2558 0.065 Uiso 0.92 1 calc R U P A 1
C8A C 0.1184(8) 0.3909(2) -0.0316(3) 0.081(2) Uani 0.92 1 d D . P A 1
H8A H 0.1370 0.3490 -0.0396 0.097 Uiso 0.92 1 calc R U P A 1
H8B H 0.1349 0.4129 -0.0820 0.097 Uiso 0.92 1 calc R U P A 1
H8C H 0.0337 0.3952 -0.0190 0.097 Uiso 0.92 1 calc R U P A 1
C9A C 0.3613(6) 0.4313(4) 0.0069(5) 0.110(3) Uani 0.92 1 d D . P A 1
H9A H 0.4158 0.4514 0.0462 0.133 Uiso 0.92 1 calc R U P A 1
H9B H 0.3515 0.4555 -0.0429 0.133 Uiso 0.92 1 calc R U P A 1
H9C H 0.3946 0.3927 -0.0075 0.133 Uiso 0.92 1 calc R U P A 1
C10A C 0.1513(6) 0.49389(19) 0.0828(3) 0.0686(16) Uani 0.92 1 d D . P A 1
H10A H 0.0689 0.4893 0.1006 0.082 Uiso 0.92 1 calc R U P A 1
H10B H 0.1525 0.5202 0.0348 0.082 Uiso 0.92 1 calc R U P A 1
H10C H 0.2004 0.5110 0.1278 0.082 Uiso 0.92 1 calc R U P A 1
C5B C 0.436(4) 0.429(2) 0.211(2) 0.088(11) Uiso 0.08 1 d D U P A 2
H5D H 0.5156 0.4448 0.2004 0.106 Uiso 0.08 1 calc R U P A 2
H5E H 0.3872 0.4602 0.2357 0.106 Uiso 0.08 1 calc R U P A 2
H5F H 0.4427 0.3954 0.2486 0.106 Uiso 0.08 1 calc R U P A 2
C6B C 0.470(4) 0.3487(18) 0.071(3) 0.088(11) Uiso 0.08 1 d D U P A 2
H6D H 0.5475 0.3676 0.0635 0.106 Uiso 0.08 1 calc R U P A 2
H6E H 0.4783 0.3160 0.1100 0.106 Uiso 0.08 1 calc R U P A 2
H6F H 0.4395 0.3334 0.0175 0.106 Uiso 0.08 1 calc R U P A 2
C7B C 0.354(3) 0.4678(17) 0.036(3) 0.088(11) Uiso 0.08 1 d D U P A 2
H7D H 0.4346 0.4833 0.0277 0.106 Uiso 0.08 1 calc R U P A 2
H7E H 0.3197 0.4541 -0.0169 0.106 Uiso 0.08 1 calc R U P A 2
H7F H 0.3036 0.4992 0.0580 0.106 Uiso 0.08 1 calc R U P A 2
C8B C -0.0440(18) 0.361(2) 0.083(3) 0.088(11) Uiso 0.08 1 d D U P A 2
H8D H -0.1064 0.3761 0.0448 0.106 Uiso 0.08 1 calc R U P A 2
H8E H -0.0354 0.3184 0.0761 0.106 Uiso 0.08 1 calc R U P A 2
H8F H -0.0663 0.3698 0.1398 0.106 Uiso 0.08 1 calc R U P A 2
C9B C 0.123(5) 0.380(3) -0.0491(13) 0.088(11) Uiso 0.08 1 d D U P A 2
H9D H 0.0539 0.3930 -0.0825 0.106 Uiso 0.08 1 calc R U P A 2
H9E H 0.1953 0.3996 -0.0677 0.106 Uiso 0.08 1 calc R U P A 2
H9F H 0.1325 0.3368 -0.0550 0.106 Uiso 0.08 1 calc R U P A 2
C10B C 0.077(5) 0.4791(9) 0.072(4) 0.088(11) Uiso 0.08 1 d D U P A 2
H10D H 0.0098 0.4914 0.0357 0.106 Uiso 0.08 1 calc R U P A 2
H10E H 0.0598 0.4888 0.1289 0.106 Uiso 0.08 1 calc R U P A 2
H10F H 0.1497 0.4999 0.0557 0.106 Uiso 0.08 1 calc R U P A 2
C11 C 0.0348(3) 0.42609(13) 0.3293(2) 0.0334(7) Uani 1 1 d . . . . .
C12 C -0.0462(3) 0.45683(14) 0.2772(2) 0.0379(7) Uani 1 1 d . . . . .
C13 C -0.0244(4) 0.51725(15) 0.2670(2) 0.0452(9) Uani 1 1 d . . . . .
H13 H -0.0757 0.5398 0.2315 0.054 Uiso 1 1 calc R U . . .
C14 C 0.0700(4) 0.54469(16) 0.3074(3) 0.0494(9) Uani 1 1 d . . . . .
H14 H 0.0853 0.5853 0.2970 0.059 Uiso 1 1 calc R U . . .
C15 C 0.1423(4) 0.51451(17) 0.3622(3) 0.0483(9) Uani 1 1 d . . . . .
H15 H 0.2047 0.5349 0.3911 0.058 Uiso 1 1 calc R U . . .
C16 C 0.1257(4) 0.45360(15) 0.3764(2) 0.0415(8) Uani 1 1 d . . . . .
C17 C -0.1596(4) 0.42855(16) 0.2422(3) 0.0463(9) Uani 1 1 d . . . . .
H17 H -0.1430 0.3857 0.2322 0.056 Uiso 1 1 calc R U . . .
C18 C -0.2060(5) 0.4556(2) 0.1623(3) 0.0710(15) Uani 1 1 d . . . . .
H18A H -0.2790 0.4350 0.1438 0.085 Uiso 1 1 calc R U . . .
H18B H -0.2236 0.4976 0.1709 0.085 Uiso 1 1 calc R U . . .
H18C H -0.1453 0.4516 0.1203 0.085 Uiso 1 1 calc R U . . .
C19 C -0.2586(4) 0.4329(2) 0.3065(4) 0.0695(13) Uani 1 1 d . . . . .
H19A H -0.2297 0.4155 0.3587 0.083 Uiso 1 1 calc R U . . .
H19B H -0.2791 0.4746 0.3151 0.083 Uiso 1 1 calc R U . . .
H19C H -0.3296 0.4113 0.2864 0.083 Uiso 1 1 calc R U . . .
C20 C 0.1936(4) 0.42349(18) 0.4470(3) 0.0522(10) Uani 1 1 d . . . . .
H20 H 0.1861 0.3797 0.4397 0.063 Uiso 1 1 calc R U . . .
C21 C 0.3269(5) 0.4392(2) 0.4530(4) 0.0747(15) Uani 1 1 d . . . . .
H21A H 0.3647 0.4182 0.4997 0.090 Uiso 1 1 calc R U . . .
H21B H 0.3653 0.4274 0.4021 0.090 Uiso 1 1 calc R U . . .
H21C H 0.3360 0.4820 0.4610 0.090 Uiso 1 1 calc R U . . .
C22 C 0.1344(5) 0.4409(2) 0.5285(3) 0.0667(13) Uani 1 1 d . . . . .
H22A H 0.1772 0.4218 0.5749 0.080 Uiso 1 1 calc R U . . .
H22B H 0.1376 0.4839 0.5354 0.080 Uiso 1 1 calc R U . . .
H22C H 0.0508 0.4278 0.5269 0.080 Uiso 1 1 calc R U . . .
C31 C -0.0149(3) 0.20850(13) 0.2922(2) 0.0342(7) Uani 1 1 d . . . . .
C32 C -0.1189(3) 0.18982(14) 0.2510(2) 0.0397(8) Uani 1 1 d . . . . .
C33 C -0.1267(4) 0.12992(17) 0.2309(3) 0.0562(11) Uani 1 1 d . . . . .
H33 H -0.1964 0.1154 0.2028 0.067 Uiso 1 1 calc R U . . .
C34 C -0.0347(5) 0.09151(17) 0.2513(3) 0.0668(14) Uani 1 1 d . . . . .
H34 H -0.0416 0.0509 0.2367 0.080 Uiso 1 1 calc R U . . .
C35 C 0.0668(4) 0.11127(16) 0.2924(3) 0.0531(10) Uani 1 1 d . . . . .
H35 H 0.1294 0.0841 0.3052 0.064 Uiso 1 1 calc R U . . .
C36 C 0.0794(3) 0.17024(14) 0.3158(2) 0.0360(7) Uani 1 1 d . . . . .
C37 C -0.2250(4) 0.23033(16) 0.2302(2) 0.0446(8) Uani 1 1 d . . . . .
H37 H -0.1960 0.2722 0.2320 0.054 Uiso 1 1 calc R U . . .
C38 C -0.2765(4) 0.2181(2) 0.1435(3) 0.0593(11) Uani 1 1 d . . . . .
H38A H -0.2133 0.2227 0.1034 0.071 Uiso 1 1 calc R U . . .
H38B H -0.3080 0.1777 0.1408 0.071 Uiso 1 1 calc R U . . .
H38C H -0.3410 0.2463 0.1307 0.071 Uiso 1 1 calc R U . . .
C39 C -0.3212(4) 0.2236(2) 0.2937(3) 0.0661(13) Uani 1 1 d . . . . .
H39A H -0.3884 0.2498 0.2794 0.079 Uiso 1 1 calc R U . . .
H39B H -0.3490 0.1825 0.2944 0.079 Uiso 1 1 calc R U . . .
H39C H -0.2881 0.2342 0.3483 0.079 Uiso 1 1 calc R U . . .
C40 C 0.1862(3) 0.18989(15) 0.3680(2) 0.0409(8) Uani 1 1 d . . . . .
H40 H 0.1903 0.2341 0.3659 0.049 Uiso 1 1 calc R U . . .
C41 C 0.3046(4) 0.16546(17) 0.3386(3) 0.0512(10) Uani 1 1 d . . . . .
H41A H 0.3700 0.1797 0.3748 0.061 Uiso 1 1 calc R U . . .
H41B H 0.3025 0.1221 0.3400 0.061 Uiso 1 1 calc R U . . .
H41C H 0.3173 0.1788 0.2822 0.061 Uiso 1 1 calc R U . . .
C42 C 0.1678(4) 0.1716(2) 0.4575(3) 0.0620(12) Uani 1 1 d . . . . .
H42A H 0.2368 0.1842 0.4916 0.074 Uiso 1 1 calc R U . . .
H42B H 0.0952 0.1904 0.4774 0.074 Uiso 1 1 calc R U . . .
H42C H 0.1596 0.1285 0.4606 0.074 Uiso 1 1 calc R U . . .
loop_
_atom_site_aniso_label
_atom_site_aniso_U_11
_atom_site_aniso_U_22
_atom_site_aniso_U_33
_atom_site_aniso_U_23
_atom_site_aniso_U_13
_atom_site_aniso_U_12
GaA 0.0288(2) 0.0335(2) 0.0276(2) 0.00070(16) 0.00117(16) 0.00184(16)
ClA 0.0361(5) 0.1216(11) 0.0349(5) -0.0022(6) -0.0087(4) 0.0033(6)
S 0.0489(5) 0.0345(4) 0.0440(5) -0.0069(3) 0.0102(4) 0.0053(3)
F1 0.121(3) 0.131(3) 0.114(3) -0.092(3) 0.036(2) -0.027(3)
F2 0.220(6) 0.119(3) 0.175(5) -0.059(3) 0.095(5) -0.105(4)
F3 0.076(3) 0.270(7) 0.256(7) -0.211(7) -0.046(4) 0.032(4)
O1 0.0531(15) 0.0329(11) 0.0387(13) -0.0067(10) 0.0106(11) -0.0022(10)
O2 0.110(3) 0.0478(16) 0.0513(18) -0.0020(13) 0.0395(18) 0.0056(17)
O3 0.098(3) 0.070(2) 0.077(2) -0.0100(18) -0.005(2) 0.048(2)
N1 0.0349(14) 0.0273(12) 0.0306(14) -0.0010(10) 0.0012(11) 0.0045(10)
N2 0.0374(15) 0.0273(12) 0.0298(14) 0.0030(10) 0.0058(11) 0.0034(10)
C1 0.0298(15) 0.0261(13) 0.0300(15) -0.0009(11) -0.0019(12) 0.0036(11)
C2 0.049(2) 0.0379(17) 0.0300(17) -0.0005(13) 0.0092(14) 0.0077(14)
C3 0.046(2) 0.0372(17) 0.0330(17) 0.0042(13) 0.0123(14) 0.0033(14)
C4 0.094(5) 0.094(4) 0.095(5) -0.062(4) 0.038(4) -0.030(4)
Si1A 0.0300(5) 0.0298(4) 0.0481(6) 0.0017(4) 0.0014(4) 0.0029(4)
Si2A 0.0408(6) 0.0364(5) 0.0405(6) 0.0102(4) 0.0082(4) 0.0058(4)
N3A 0.0340(16) 0.0279(13) 0.0358(17) 0.0046(12) 0.0061(12) 0.0052(11)
C5A 0.032(2) 0.070(3) 0.050(3) 0.003(2) -0.010(2) 0.002(2)
C6A 0.035(2) 0.060(3) 0.069(3) 0.001(2) 0.006(2) 0.0156(19)
C7A 0.046(2) 0.0311(19) 0.084(3) -0.006(2) -0.005(2) -0.0056(17)
C8A 0.156(7) 0.046(3) 0.039(3) 0.008(2) -0.014(3) -0.005(3)
C9A 0.060(4) 0.173(8) 0.100(5) 0.091(5) 0.028(3) 0.027(4)
C10A 0.115(5) 0.034(2) 0.056(3) 0.0043(19) -0.006(3) 0.018(3)
C11 0.0384(18) 0.0255(14) 0.0362(17) -0.0016(12) 0.0023(13) 0.0029(12)
C12 0.043(2) 0.0313(16) 0.0387(18) 0.0039(13) -0.0001(15) 0.0028(13)
C13 0.056(2) 0.0321(17) 0.048(2) 0.0050(15) 0.0029(17) 0.0039(15)
C14 0.066(3) 0.0305(17) 0.052(2) 0.0000(15) 0.0068(19) -0.0058(16)
C15 0.048(2) 0.0405(19) 0.056(2) -0.0153(17) 0.0026(18) -0.0077(16)
C16 0.046(2) 0.0332(16) 0.045(2) -0.0103(14) -0.0006(16) 0.0039(14)
C17 0.045(2) 0.0374(18) 0.056(2) 0.0086(16) -0.0120(17) 0.0036(15)
C18 0.075(3) 0.061(3) 0.075(3) 0.017(2) -0.035(3) -0.006(2)
C19 0.044(3) 0.080(3) 0.084(4) 0.005(3) -0.005(2) -0.001(2)
C20 0.052(2) 0.046(2) 0.057(2) -0.0125(18) -0.0184(19) 0.0085(17)
C21 0.067(3) 0.076(3) 0.079(4) -0.020(3) -0.030(3) 0.012(3)
C22 0.084(4) 0.072(3) 0.043(2) -0.008(2) -0.016(2) 0.019(3)
C31 0.0422(19) 0.0247(14) 0.0357(17) 0.0004(12) 0.0023(14) 0.0029(12)
C32 0.044(2) 0.0301(16) 0.045(2) 0.0039(14) -0.0040(15) 0.0045(13)
C33 0.061(3) 0.0337(18) 0.072(3) -0.0016(18) -0.025(2) 0.0004(17)
C34 0.080(3) 0.0268(17) 0.092(4) -0.0047(19) -0.033(3) 0.0069(18)
C35 0.059(3) 0.0280(17) 0.071(3) -0.0010(17) -0.019(2) 0.0104(16)
C36 0.0414(19) 0.0293(15) 0.0373(18) 0.0010(13) -0.0002(14) 0.0029(13)
C37 0.046(2) 0.0394(18) 0.048(2) 0.0066(15) -0.0051(16) 0.0078(15)
C38 0.057(3) 0.060(3) 0.060(3) -0.002(2) -0.019(2) 0.016(2)
C39 0.050(3) 0.085(3) 0.064(3) 0.013(2) 0.005(2) 0.012(2)
C40 0.042(2) 0.0345(16) 0.046(2) 0.0006(14) -0.0040(15) 0.0036(14)
C41 0.045(2) 0.0412(19) 0.067(3) 0.0033(18) 0.0009(19) 0.0078(16)
C42 0.056(3) 0.087(3) 0.042(2) 0.003(2) -0.0087(19) 0.005(2)
loop_
_atom_type_symbol
_atom_type_description
_atom_type_scat_dispersion_real
_atom_type_scat_dispersion_imag
_atom_type_scat_source
C C 0.0181 0.0091 'International Tables Vol C Tables 4.2.6.8 and 6.1.1.4'
H H 0.0000 0.0000 'International Tables Vol C Tables 4.2.6.8 and 6.1.1.4'
N N 0.0311 0.0180 'International Tables Vol C Tables 4.2.6.8 and 6.1.1.4'
O O 0.0492 0.0322 'International Tables Vol C Tables 4.2.6.8 and 6.1.1.4'
F F 0.0727 0.0534 'International Tables Vol C Tables 4.2.6.8 and 6.1.1.4'
Si Si 0.2541 0.3302 'International Tables Vol C Tables 4.2.6.8 and 6.1.1.4'
S S 0.3331 0.5567 'International Tables Vol C Tables 4.2.6.8 and 6.1.1.4'
Cl Cl 0.3639 0.7018 'International Tables Vol C Tables 4.2.6.8 and 6.1.1.4'
Ga Ga -1.2846 0.7763 'International Tables Vol C Tables 4.2.6.8 and 6.1.1.4'
loop_
_geom_angle_atom_site_label_1
_geom_angle_atom_site_label_2
_geom_angle_atom_site_label_3
_geom_angle
N3A GaA O1 106.75(13)
N3A GaA C1 124.52(14)
O1 GaA C1 100.96(11)
N3A GaA ClA 117.04(10)
O1 GaA ClA 102.10(9)
C1 GaA ClA 102.26(9)
N3B GaB O1 108.6(15)
N3B GaB C1 129.2(11)
O1 GaB C1 96.4(2)
N3B GaB ClB 108.1(17)
O1 GaB ClB 112.5(15)
C1 GaB ClB 101.6(17)
O2 S O3 116.7(2)
O2 S O1 112.99(16)
O3 S O1 112.8(2)
O2 S C4 104.3(3)
O3 S C4 105.0(3)
O1 S C4 103.4(2)
S O1 GaA 130.20(16)
S O1 GaB 129.0(2)
C1 N1 C2 110.4(3)
C1 N1 C11 127.3(3)
C2 N1 C11 122.0(3)
C1 N2 C3 110.9(3)
C1 N2 C31 129.2(3)
C3 N2 C31 119.9(3)
N2 C1 N1 104.5(3)
N2 C1 GaA 126.8(2)
N1 C1 GaA 128.3(2)
N2 C1 GaB 127.0(2)
N1 C1 GaB 120.7(3)
C3 C2 N1 107.3(3)
C2 C3 N2 106.8(3)
F3 C4 F1 109.9(7)
F3 C4 F2 108.4(7)
F1 C4 F2 105.7(6)
F3 C4 S 114.2(5)
F1 C4 S 110.1(4)
F2 C4 S 108.1(6)
N3A Si1A C6A 113.7(2)
N3A Si1A C7A 110.16(19)
C6A Si1A C7A 107.9(2)
N3A Si1A C5A 111.1(3)
C6A Si1A C5A 103.3(6)
C7A Si1A C5A 110.4(6)
N3A Si2A C10A 109.8(2)
N3A Si2A C8A 115.0(2)
C10A Si2A C8A 107.9(3)
N3A Si2A C9A 112.1(2)
C10A Si2A C9A 108.9(4)
C8A Si2A C9A 102.8(4)
Si2A N3A Si1A 119.39(17)
Si2A N3A GaA 123.44(18)
Si1A N3A GaA 116.93(16)
N3B Si1B C6B 113.9(7)
N3B Si1B C7B 110.2(7)
C6B Si1B C7B 108.0(7)
N3B Si1B C5B 111.3(7)
C6B Si1B C5B 103.3(8)
C7B Si1B C5B 109.9(9)
N3B Si2B C10B 109.7(7)
N3B Si2B C8B 114.5(7)
C10B Si2B C8B 107.8(7)
N3B Si2B C9B 112.4(7)
C10B Si2B C9B 109.1(8)
C8B Si2B C9B 103.0(7)
Si1B N3B Si2B 119.9(7)
Si1B N3B GaB 122.8(9)
Si2B N3B GaB 117.2(8)
C16 C11 C12 123.7(3)
C16 C11 N1 118.6(3)
C12 C11 N1 117.4(3)
C13 C12 C11 116.2(3)
C13 C12 C17 121.0(3)
C11 C12 C17 122.4(3)
C14 C13 C12 121.2(4)
C15 C14 C13 121.2(3)
C14 C15 C16 121.0(4)
C11 C16 C15 116.2(3)
C11 C16 C20 123.6(3)
C15 C16 C20 119.7(3)
C18 C17 C12 114.4(3)
C18 C17 C19 108.6(4)
C12 C17 C19 109.2(4)
C16 C20 C21 114.1(4)
C16 C20 C22 108.3(3)
C21 C20 C22 109.1(4)
C32 C31 C36 123.7(3)
C32 C31 N2 118.4(3)
C36 C31 N2 117.3(3)
C31 C32 C33 117.0(3)
C31 C32 C37 123.9(3)
C33 C32 C37 119.0(3)
C34 C33 C32 120.8(4)
C35 C34 C33 120.8(4)
C34 C35 C36 121.3(4)
C35 C36 C31 116.3(3)
C35 C36 C40 120.5(3)
C31 C36 C40 123.1(3)
C39 C37 C32 110.5(3)
C39 C37 C38 110.6(4)
C32 C37 C38 111.4(3)
C36 C40 C41 113.4(3)
C36 C40 C42 109.1(3)
C41 C40 C42 110.0(3)
loop_
_geom_bond_atom_site_label_1
_geom_bond_atom_site_label_2
_geom_bond_distance
GaA N3A 1.846(3)
GaA O1 1.969(2)
GaA C1 2.042(3)
GaA ClA 2.1668(11)
GaB N3B 1.840(9)
GaB O1 1.982(5)
GaB C1 2.167(6)
GaB ClB 2.171(10)
S O2 1.416(3)
S O3 1.419(3)
S O1 1.480(2)
S C4 1.805(6)
F1 C4 1.313(6)
F2 C4 1.360(9)
F3 C4 1.252(9)
N1 C1 1.363(4)
N1 C2 1.377(4)
N1 C11 1.462(4)
N2 C1 1.355(4)
N2 C3 1.379(4)
N2 C31 1.460(4)
C2 C3 1.342(5)
Si1A N3A 1.749(3)
Si1A C6A 1.869(4)
Si1A C7A 1.875(4)
Si1A C5A 1.889(18)
Si2A N3A 1.745(3)
Si2A C10A 1.850(5)
Si2A C8A 1.852(6)
Si2A C9A 1.880(6)
Si1B N3B 1.743(9)
Si1B C6B 1.867(10)
Si1B C7B 1.877(10)
Si1B C5B 1.89(2)
Si2B N3B 1.744(9)
Si2B C10B 1.851(10)
Si2B C8B 1.855(10)
Si2B C9B 1.876(11)
C11 C16 1.400(5)
C11 C12 1.405(5)
C12 C13 1.397(5)
C12 C17 1.516(5)
C13 C14 1.375(6)
C14 C15 1.367(6)
C15 C16 1.408(5)
C16 C20 1.518(5)
C17 C18 1.513(6)
C17 C19 1.547(7)
C20 C21 1.533(7)
C20 C22 1.548(7)
C31 C32 1.390(5)
C31 C36 1.409(5)
C32 C33 1.394(5)
C32 C37 1.529(5)
C33 C34 1.379(6)
C34 C35 1.375(6)
C35 C36 1.391(5)
C36 C40 1.511(5)
C37 C39 1.521(6)
C37 C38 1.531(6)
C40 C41 1.525(5)
C40 C42 1.530(6)
loop_
_geom_torsion_atom_site_label_1
_geom_torsion_atom_site_label_2
_geom_torsion_atom_site_label_3
_geom_torsion_atom_site_label_4
_geom_torsion
O2 S O1 GaA 4.1(3)
O3 S O1 GaA 139.2(3)
C4 S O1 GaA -108.0(4)
O2 S O1 GaB -38.6(4)
O3 S O1 GaB 96.5(3)
C4 S O1 GaB -150.7(4)
N3A GaA O1 S -47.9(3)
C1 GaA O1 S -179.3(2)
ClA GaA O1 S 75.5(2)
N3B GaB O1 S 36.2(7)
C1 GaB O1 S 171.3(2)
ClB GaB O1 S -83.4(18)
C3 N2 C1 N1 -0.1(4)
C31 N2 C1 N1 177.9(3)
C3 N2 C1 GaA -173.0(2)
C31 N2 C1 GaA 5.1(5)
C3 N2 C1 GaB 148.8(3)
C31 N2 C1 GaB -33.2(5)
C2 N1 C1 N2 0.1(4)
C11 N1 C1 N2 -174.0(3)
C2 N1 C1 GaA 172.8(2)
C11 N1 C1 GaA -1.3(5)
C2 N1 C1 GaB -151.2(3)
C11 N1 C1 GaB 34.7(4)
N3A GaA C1 N2 -149.5(3)
O1 GaA C1 N2 -30.2(3)
ClA GaA C1 N2 74.9(3)
N3A GaA C1 N1 39.3(3)
O1 GaA C1 N1 158.6(3)
ClA GaA C1 N1 -96.3(3)
N3B GaB C1 N2 152.7(16)
O1 GaB C1 N2 32.3(4)
ClB GaB C1 N2 -82.2(15)
N3B GaB C1 N1 -62.9(16)
O1 GaB C1 N1 176.8(3)
ClB GaB C1 N1 62.2(15)
C1 N1 C2 C3 -0.1(4)
C11 N1 C2 C3 174.4(3)
N1 C2 C3 N2 0.0(4)
C1 N2 C3 C2 0.1(4)
C31 N2 C3 C2 -178.1(3)
O2 S C4 F3 -64.2(7)
O3 S C4 F3 172.6(6)
O1 S C4 F3 54.1(7)
O2 S C4 F1 60.0(7)
O3 S C4 F1 -63.2(7)
O1 S C4 F1 178.4(5)
O2 S C4 F2 175.0(4)
O3 S C4 F2 51.8(5)
O1 S C4 F2 -66.7(5)
C10A Si2A N3A Si1A -93.2(3)
C8A Si2A N3A Si1A 144.9(3)
C9A Si2A N3A Si1A 27.9(4)
C10A Si2A N3A GaA 92.6(3)
C8A Si2A N3A GaA -29.3(4)
C9A Si2A N3A GaA -146.2(4)
C6A Si1A N3A Si2A -67.2(3)
C7A Si1A N3A Si2A 54.0(3)
C5A Si1A N3A Si2A 176.8(7)
C6A Si1A N3A GaA 107.3(2)
C7A Si1A N3A GaA -131.4(2)
C5A Si1A N3A GaA -8.7(7)
O1 GaA N3A Si2A 111.9(2)
C1 GaA N3A Si2A -131.5(2)
ClA GaA N3A Si2A -1.7(3)
O1 GaA N3A Si1A -62.4(2)
C1 GaA N3A Si1A 54.2(3)
ClA GaA N3A Si1A -175.98(14)
C6B Si1B N3B Si2B -110(3)
C7B Si1B N3B Si2B 11(3)
C5B Si1B N3B Si2B 133(3)
C6B Si1B N3B GaB 69(3)
C7B Si1B N3B GaB -169(3)
C5B Si1B N3B GaB -47(3)
C10B Si2B N3B Si1B -62(3)
C8B Si2B N3B Si1B 177(3)
C9B Si2B N3B Si1B 60(3)
C10B Si2B N3B GaB 119(3)
C8B Si2B N3B GaB -3(3)
C9B Si2B N3B GaB -120(3)
O1 GaB N3B Si1B -105(3)
C1 GaB N3B Si1B 139.5(19)
ClB GaB N3B Si1B 17(4)
O1 GaB N3B Si2B 74(3)
C1 GaB N3B Si2B -41(3)
ClB GaB N3B Si2B -163(3)
C1 N1 C11 C16 -110.8(4)
C2 N1 C11 C16 75.7(4)
C1 N1 C11 C12 75.7(4)
C2 N1 C11 C12 -97.8(4)
C16 C11 C12 C13 6.8(5)
N1 C11 C12 C13 179.9(3)
C16 C11 C12 C17 -165.8(4)
N1 C11 C12 C17 7.3(5)
C11 C12 C13 C14 -1.3(6)
C17 C12 C13 C14 171.4(4)
C12 C13 C14 C15 -3.4(6)
C13 C14 C15 C16 2.8(7)
C12 C11 C16 C15 -7.3(6)
N1 C11 C16 C15 179.7(3)
C12 C11 C16 C20 164.9(4)
N1 C11 C16 C20 -8.1(5)
C14 C15 C16 C11 2.3(6)
C14 C15 C16 C20 -170.2(4)
C13 C12 C17 C18 33.4(6)
C11 C12 C17 C18 -154.4(4)
C13 C12 C17 C19 -88.6(4)
C11 C12 C17 C19 83.6(4)
C11 C16 C20 C21 142.1(4)
C15 C16 C20 C21 -45.9(5)
C11 C16 C20 C22 -96.1(4)
C15 C16 C20 C22 75.9(5)
C1 N2 C31 C32 -95.0(4)
C3 N2 C31 C32 82.9(4)
C1 N2 C31 C36 93.3(4)
C3 N2 C31 C36 -88.8(4)
C36 C31 C32 C33 -1.6(6)
N2 C31 C32 C33 -172.7(4)
C36 C31 C32 C37 175.9(3)
N2 C31 C32 C37 4.8(5)
C31 C32 C33 C34 -0.1(7)
C37 C32 C33 C34 -177.7(5)
C32 C33 C34 C35 0.4(8)
C33 C34 C35 C36 0.9(8)
C34 C35 C36 C31 -2.4(7)
C34 C35 C36 C40 174.1(5)
C32 C31 C36 C35 2.8(6)
N2 C31 C36 C35 174.0(3)
C32 C31 C36 C40 -173.6(3)
N2 C31 C36 C40 -2.4(5)
C31 C32 C37 C39 -97.9(5)
C33 C32 C37 C39 79.5(5)
C31 C32 C37 C38 138.7(4)
C33 C32 C37 C38 -43.8(5)
C35 C36 C40 C41 45.8(5)
C31 C36 C40 C41 -137.9(4)
C35 C36 C40 C42 -77.2(5)
C31 C36 C40 C42 99.0(4)
