#------------------------------------------------------------------------------
#$Date: 2017-05-06 00:46:20 +0300 (Sat, 06 May 2017) $
#$Revision: 196335 $
#$URL: file:///home/coder/svn-repositories/cod/cif/1/54/56/1545640.cif $
#------------------------------------------------------------------------------
#
# This file is available in the Crystallography Open Database (COD),
# http://www.crystallography.net/
#
# All data on this site have been placed in the public domain by the
# contributors.
#
data_1545640
loop_
_publ_author_name
'Phonsri, Wasinee'
'Harding, Phimphaka'
'Liu, Lujia'
'Telfer, Shane G.'
'Murray, Keith S.'
'Moubaraki, Boujemaa'
'Ross, Tamsyn M.'
'Jameson, Guy N. L.'
'Harding, David J.'
_publ_section_title
;
 Solvent modified spin crossover in an iron(iii) complex: phase changes
 and an exceptionally wide hysteresis
;
_journal_issue                   5
_journal_name_full               'Chem. Sci.'
_journal_page_first              3949
_journal_paper_doi               10.1039/C6SC05317C
_journal_volume                  8
_journal_year                    2017
_chemical_formula_moiety         'C32 H20 Fe I2 N4 O2, C F3 O3 S, C3 H6 O'
_chemical_formula_sum            'C36 H26 F3 Fe I2 N4 O6 S'
_chemical_formula_weight         1009.32
_chemical_name_systematic
;
 ?
;
_space_group_crystal_system      triclinic
_space_group_IT_number           2
_space_group_name_Hall           '-P 1'
_space_group_name_H-M_alt        'P -1'
_symmetry_space_group_name_Hall  '-P 1'
_symmetry_space_group_name_H-M   'P -1'
_atom_sites_solution_hydrogens   geom
_audit_creation_method           SHELXL-2013
_audit_update_record
;
2016-11-30 deposited with the CCDC.
2017-03-22 downloaded from the CCDC.
;
_cell_angle_alpha                79.080(6)
_cell_angle_beta                 76.267(5)
_cell_angle_gamma                86.609(6)
_cell_formula_units_Z            2
_cell_length_a                   10.3759(4)
_cell_length_b                   12.8053(5)
_cell_length_c                   13.8091(10)
_cell_measurement_reflns_used    3966
_cell_measurement_temperature    137(2)
_cell_measurement_theta_max      71.98
_cell_measurement_theta_min      6.71
_cell_volume                     1749.85(17)
_computing_cell_refinement       'FSProcess in Process-Auto (Rigaku, 1998)'
_computing_data_collection       'CrystalClear (Rigaku, 2005)'
_computing_data_reduction        'FSProcess in Process-Auto (Rigaku, 1998)'
_computing_molecular_graphics
'OLEX (Dolomanov, 2003) and SXGRAPH in WinGX v2013.1'
_computing_publication_material  'SHELXL-97 (Sheldrick, 1997)'
_computing_structure_refinement  'SHELXL-97 (Sheldrick, 1997)'
_computing_structure_solution    'SHELXS-97 (Sheldrick, 2008)'
_diffrn_ambient_temperature      137(2)
_diffrn_detector_area_resol_mean 10
_diffrn_measured_fraction_theta_full 0.966
_diffrn_measured_fraction_theta_max 0.940
_diffrn_measurement_device_type  'Rigaku Spider'
_diffrn_measurement_method       \w-scans
_diffrn_radiation_type           CuK\a
_diffrn_radiation_wavelength     1.54178
_diffrn_reflns_av_R_equivalents  0.0941
_diffrn_reflns_av_unetI/netI     0.0836
_diffrn_reflns_Laue_measured_fraction_full 0.966
_diffrn_reflns_Laue_measured_fraction_max 0.940
_diffrn_reflns_limit_h_max       11
_diffrn_reflns_limit_h_min       -12
_diffrn_reflns_limit_k_max       15
_diffrn_reflns_limit_k_min       -14
_diffrn_reflns_limit_l_max       16
_diffrn_reflns_limit_l_min       -16
_diffrn_reflns_number            24183
_diffrn_reflns_point_group_measured_fraction_full 0.966
_diffrn_reflns_point_group_measured_fraction_max 0.940
_diffrn_reflns_theta_full        67.679
_diffrn_reflns_theta_max         71.987
_diffrn_reflns_theta_min         6.711
_diffrn_source                   'Rigaku MM007 rotating anode'
_exptl_absorpt_coefficient_mu    18.474
_exptl_absorpt_correction_T_max  1.000000
_exptl_absorpt_correction_T_min  0.187137
_exptl_absorpt_correction_type   multi-scan
_exptl_absorpt_process_details   '(ABSCOR; Higashi, 1995)'
_exptl_crystal_colour            black
_exptl_crystal_density_diffrn    1.916
_exptl_crystal_density_method    'not measured'
_exptl_crystal_description       rod
_exptl_crystal_F_000             986
_exptl_crystal_size_max          1.328
_exptl_crystal_size_mid          0.427
_exptl_crystal_size_min          0.190
_refine_diff_density_max         2.189
_refine_diff_density_min         -2.701
_refine_diff_density_rms         0.217
_refine_ls_extinction_method     none
_refine_ls_goodness_of_fit_ref   1.205
_refine_ls_hydrogen_treatment    constr
_refine_ls_matrix_type           full
_refine_ls_number_parameters     480
_refine_ls_number_reflns         6466
_refine_ls_number_restraints     127
_refine_ls_restrained_S_all      1.242
_refine_ls_R_factor_all          0.0930
_refine_ls_R_factor_gt           0.0829
_refine_ls_shift/su_max          0.000
_refine_ls_shift/su_mean         0.000
_refine_ls_structure_factor_coef Fsqd
_refine_ls_weighting_details
;
 w=1/[\s^2^(Fo^2^)+(0.1071P)^2^+10.8507P]
 where P=(Fo^2^+2Fc^2^)/3
;
_refine_ls_weighting_scheme      calc
_refine_ls_wR_factor_gt          0.2156
_refine_ls_wR_factor_ref         0.2451
_reflns_Friedel_coverage         0.000
_reflns_number_gt                5485
_reflns_number_total             6466
_reflns_threshold_expression     'I > 2\s(I)'
_cod_data_source_file            c6sc05317c2.cif
_cod_data_source_block           wp113-lt
_cod_depositor_comments
'Adding full bibliography for 1545631--1545641.cif.'
_cod_database_code               1545640
_shelx_space_group_comment
;
The symmetry employed for this shelxl refinement is uniquely defined
by the following loop, which should always be used as a source of
symmetry information in preference to the above space-group names.
They are only intended as comments.
;
_shelx_estimated_absorpt_t_min   0.016
_shelx_estimated_absorpt_t_max   0.127
_shelxl_version_number           2013-2
_shelx_res_file
;
TITL wp113-lt in P-1
CELL  1.54178  10.3759  12.8053  13.8091   79.080   76.267   86.609
ZERR     2.00   0.0004   0.0005   0.0010    0.006    0.005    0.006
LATT   1
SFAC  C    H    N    O    F    S    FE   I
UNIT  72   52   8    12   6    2    2    4
MERG   2
FMAP   2
PLAN    5
DELU 0.01 C01 S01 O01 O02 O03 F01 F02 F03
SIMU 0.01 C01 S01 O01 O02 O03 F01 F02 F03
ISOR 0.01 C01 S01 O01 O02 O03 F01 F02 F03
SADI 0.02 F01 F02 F01 F03 F02 F03
SADI 0.02 C01 F01 C01 F02 C01 F03
SADI 0.02 O01 O02 O01 O03 O02 O03
SADI 0.02 S01 O01 S01 O02 S01 O03
SADI 0.02 C01 O01 C01 O02 C01 O03
SADI 0.02 S01 F01 S01 F02 S01 F03
SIZE     0.190   0.427   1.328
ACTA
BOND   $H
CONF
L.S.  64
TEMP  -136.00
WGHT    0.107100   10.850700
FVAR       0.10069
I1    8    1.341639    0.066101    0.069260    11.00000    0.04600    0.06505 =
         0.03239   -0.00832    0.00420    0.01022
I2    8    1.205094    0.383886    0.907496    11.00000    0.05834    0.07058 =
         0.03362    0.00617   -0.01543   -0.01797
FE1   7    0.864157    0.247520    0.518102    11.00000    0.02775    0.03173 =
         0.02100   -0.00071    0.00202   -0.00506
O2    4    0.975908    0.183428    0.605993    11.00000    0.03491    0.03728 =
         0.03052   -0.00033   -0.00370   -0.00230
N4    3    0.741308    0.319523    0.434971    11.00000    0.03191    0.03068 =
         0.02373    0.00378    0.00095   -0.00553
O1    4    1.013616    0.296365    0.409591    11.00000    0.03391    0.05268 =
         0.02489    0.00044    0.00348   -0.01812
S01   6    0.655778    0.449095    0.892633    11.00000    0.20566    0.19178 =
         0.12647   -0.03446   -0.05998    0.00245
N3    3    0.858237    0.385963    0.557937    11.00000    0.02175    0.03828 =
         0.01945   -0.00236    0.00590   -0.00132
N2    3    0.707016    0.190111    0.622815    11.00000    0.02772    0.04246 =
         0.02396    0.00058    0.00042   -0.00476
N1    3    0.860617    0.110695    0.476131    11.00000    0.02676    0.03978 =
         0.02470    0.00089    0.00255   -0.00676
O01   4    0.663660    0.443244    0.796978    11.00000    0.10898    0.09146 =
         0.10418   -0.01475   -0.06450    0.00371
C36   1    0.993879    0.337836    0.681542    11.00000    0.02642    0.03739 =
         0.02811    0.00229    0.00213    0.00179
C16   1    1.057979    0.135283    0.338538    11.00000    0.03034    0.03201 =
         0.03170   -0.00431    0.00357   -0.00126
C29   1    0.668077    0.094523    0.610064    11.00000    0.02373    0.03116 =
         0.02718   -0.00106    0.00254    0.00298
C45   1    0.635453    0.490183    0.386390    11.00000    0.02443    0.05446 =
         0.02723    0.01403    0.00110   -0.00667
O04   4    0.790028    0.111730    0.215832    11.00000    0.05294    0.07854 =
         0.06709   -0.00349    0.01575   -0.01227
C26   1    0.475773    0.093694    0.749677    11.00000    0.03076    0.04624 =
         0.04021    0.01500    0.00159   -0.00203
AFIX  43
H26   2    0.395115    0.064353    0.791721    11.00000   -1.20000
AFIX   0
C21   1    0.750545    0.047032    0.531640    11.00000    0.03789    0.03634 =
         0.03323    0.00267   -0.00198   -0.01355
C41   1    0.781765    0.463547    0.507463    11.00000    0.02493    0.04632 =
         0.02009    0.00625    0.00270   -0.01077
C42   1    0.764019    0.570693    0.514657    11.00000    0.03787    0.03677 =
         0.02723   -0.00082   -0.00047   -0.00244
AFIX  43
H42   2    0.805467    0.598782    0.558369    11.00000   -1.20000
AFIX   0
C25   1    0.552513    0.041153    0.671331    11.00000    0.03483    0.04509 =
         0.03185    0.00603    0.00281   -0.01072
C32   1    1.091056    0.167722    0.735565    11.00000    0.03799    0.04135 =
         0.02818    0.00641   -0.00237   -0.00240
AFIX  43
H32   2    1.106123    0.094368    0.732622    11.00000   -1.20000
AFIX   0
C35   1    1.047785    0.379563    0.749244    11.00000    0.03734    0.05181 =
         0.02631    0.00400   -0.00078   -0.00807
AFIX  43
H35   2    1.033640    0.452667    0.753623    11.00000   -1.20000
AFIX   0
C24   1    0.521934   -0.056983    0.652524    11.00000    0.04445    0.06367 =
         0.04498    0.00261    0.00891   -0.02844
AFIX  43
H24   2    0.444908   -0.093383    0.693105    11.00000   -1.20000
AFIX   0
C37   1    0.918373    0.409812    0.622049    11.00000    0.02878    0.03264 =
         0.02871   -0.00315    0.00115   -0.00192
AFIX  43
H37   2    0.912388    0.481835    0.631000    11.00000   -1.20000
AFIX   0
C47   1    0.598697    0.339137    0.317675    11.00000    0.03168    0.06034 =
         0.03122    0.00743   -0.00807   -0.01357
AFIX  43
H47   2    0.559622    0.307279    0.274985    11.00000   -1.20000
AFIX   0
C17   1    0.949415    0.075028    0.406629    11.00000    0.03552    0.03662 =
         0.03491    0.00279   -0.00588   -0.00791
AFIX  43
H17   2    0.942393    0.003210    0.399994    11.00000   -1.20000
AFIX   0
C49   1    0.718707    0.423106    0.441984    11.00000    0.02768    0.03153 =
         0.02309    0.00780    0.00121   -0.00475
C48   1    0.682268    0.277922    0.376467    11.00000    0.03500    0.05776 =
         0.02752    0.00201   -0.00166   -0.02055
AFIX  43
H48   2    0.695985    0.204488    0.373440    11.00000   -1.20000
AFIX   0
C11   1    1.082542    0.241112    0.343008    11.00000    0.02393    0.05562 =
         0.02348   -0.00513    0.00357   -0.00844
C31   1    1.016239    0.230337    0.670979    11.00000    0.02220    0.04204 =
         0.02960    0.00628    0.00595   -0.00030
C15   1    1.135634    0.085605    0.261873    11.00000    0.03424    0.03401 =
         0.03950   -0.00912    0.00044    0.00442
AFIX  43
H15   2    1.118776    0.013675    0.261145    11.00000   -1.20000
AFIX   0
C44   1    0.621743    0.598318    0.396202    11.00000    0.03907    0.04708 =
         0.03386    0.01209    0.00289    0.00192
AFIX  43
H44   2    0.567636    0.644400    0.359524    11.00000   -1.20000
AFIX   0
C33   1    1.142572    0.211477    0.802846    11.00000    0.03553    0.06479 =
         0.02540    0.01149   -0.00241   -0.00624
AFIX  43
H33   2    1.193169    0.168007    0.844420    11.00000   -1.20000
AFIX   0
C28   1    0.633740    0.234111    0.697947    11.00000    0.03757    0.03292 =
         0.02945   -0.00227    0.00146    0.00280
AFIX  43
H28   2    0.659108    0.300550    0.708152    11.00000   -1.20000
AFIX   0
C43   1    0.685286    0.638100    0.457875    11.00000    0.04698    0.03548 =
         0.03348    0.00277    0.00429    0.00093
AFIX  43
H43   2    0.676135    0.711414    0.462294    11.00000   -1.20000
AFIX   0
C14   1    1.236364    0.138387    0.187047    11.00000    0.03849    0.04333 =
         0.02954   -0.01093    0.00163    0.00835
C46   1    0.575581    0.444546    0.323653    11.00000    0.02901    0.05629 =
         0.03158    0.01061   -0.00419   -0.00326
AFIX  43
H46   2    0.519488    0.486318    0.285625    11.00000   -1.20000
AFIX   0
C22   1    0.715532   -0.047789    0.515549    11.00000    0.05697    0.05701 =
         0.04469   -0.00740    0.01147   -0.02368
AFIX  43
H22   2    0.768869   -0.079046    0.462128    11.00000   -1.20000
AFIX   0
C12   1    1.188500    0.293561    0.266502    11.00000    0.04094    0.05324 =
         0.03592    0.00292    0.00100   -0.01960
AFIX  43
H12   2    1.207911    0.364747    0.267960    11.00000   -1.20000
AFIX   0
C27   1    0.520573    0.184930    0.762040    11.00000    0.03507    0.05315 =
         0.03097    0.00389    0.00864    0.00826
AFIX  43
H27   2    0.473393    0.217508    0.816670    11.00000   -1.20000
AFIX   0
C13   1    1.263046    0.244882    0.191173    11.00000    0.03294    0.05317 =
         0.03156   -0.01292    0.01176   -0.00028
AFIX  43
H13   2    1.332690    0.282332    0.141603    11.00000   -1.20000
AFIX   0
C02   1    0.865798    0.161818    0.145623    11.00000    0.03964    0.05892 =
         0.04632   -0.00121    0.00926    0.00495
C34   1    1.121032    0.317095    0.809844    11.00000    0.03989    0.03285 =
         0.02335   -0.01061    0.00148    0.00295
C23   1    0.600736   -0.100335    0.577380    11.00000    0.05991    0.07404 =
         0.06088   -0.01382    0.01482   -0.04290
AFIX  43
H23   2    0.578776   -0.167193    0.565821    11.00000   -1.20000
AFIX   0
C03   1    0.931407    0.109115    0.057687    11.00000    0.07579    0.12428 =
         0.03494   -0.01382    0.00095   -0.01281
AFIX 137
H03A  2    1.027241    0.120869    0.041104    11.00000   -1.50000
H03B  2    0.895267    0.139516   -0.001174    11.00000   -1.50000
H03C  2    0.914509    0.032580    0.075771    11.00000   -1.50000
AFIX   0
C04   1    0.907237    0.270903    0.140113    11.00000    0.06460    0.07618 =
         0.06855    0.00983   -0.00081   -0.00935
AFIX 137
H04A  2    0.881596    0.289767    0.207710    11.00000   -1.50000
H04B  2    0.864006    0.320159    0.093659    11.00000   -1.50000
H04C  2    1.003759    0.275568    0.115292    11.00000   -1.50000
AFIX   0
F01   5    0.696641    0.255702    0.935671    11.00000    0.22991    0.19328 =
         0.16669   -0.00031   -0.06842    0.00289
F02   5    0.622947    0.334015    1.063445    11.00000    0.23308    0.23977 =
         0.15053   -0.00042   -0.05522   -0.01996
O02   4    0.780372    0.469329    0.918144    11.00000    0.23158    0.24558 =
         0.15235   -0.06774   -0.09761   -0.03435
O03   4    0.559242    0.521777    0.938722    11.00000    0.26492    0.23839 =
         0.18896   -0.06241    0.00007    0.04687
F03   5    0.491632    0.313037    0.966480    11.00000    0.21176    0.27766 =
         0.23311   -0.04387   -0.06023   -0.03927
C01   1    0.617826    0.334866    0.965194    11.00000    0.20374    0.20722 =
         0.15053   -0.01317   -0.05306   -0.00739
HKLF    4

REM  wp113-lt in P-1
REM R1 =  0.0829 for    5485 Fo > 4sig(Fo)  and  0.0930 for all    6466 data
REM    480 parameters refined using    127 restraints

END

WGHT      0.1144     12.0037

REM Highest difference peak  2.189,  deepest hole -2.701,  1-sigma level  0.217
Q1    1   1.3950  0.1197  0.0609  11.00000  0.05    2.19
Q2    1   0.8249  0.3604  0.9499  11.00000  0.05    1.52
Q3    1   1.4081 -0.0212  0.0429  11.00000  0.05    1.40
Q4    1   1.2852  0.1619  0.0946  11.00000  0.05    1.31
Q5    1   0.5767  0.4467  0.9212  11.00000  0.05    1.24
;
_shelx_res_checksum              22579
loop_
_space_group_symop_operation_xyz
'x, y, z'
'-x, -y, -z'
loop_
_atom_site_label
_atom_site_type_symbol
_atom_site_fract_x
_atom_site_fract_y
_atom_site_fract_z
_atom_site_U_iso_or_equiv
_atom_site_adp_type
_atom_site_occupancy
_atom_site_site_symmetry_order
_atom_site_calc_flag
_atom_site_refinement_flags_posn
_atom_site_refinement_flags_adp
I1 I 1.34164(7) 0.06610(6) 0.06926(5) 0.0506(3) Uani 1 1 d . .
I2 I 1.20509(7) 0.38389(6) 0.90750(5) 0.0548(3) Uani 1 1 d . .
Fe1 Fe 0.86416(12) 0.24752(10) 0.51810(9) 0.0285(3) Uani 1 1 d . .
O2 O 0.9759(6) 0.1834(5) 0.6060(4) 0.0356(14) Uani 1 1 d . .
N4 N 0.7413(7) 0.3195(6) 0.4350(5) 0.0310(15) Uani 1 1 d . .
O1 O 1.0136(6) 0.2964(5) 0.4096(4) 0.0392(15) Uani 1 1 d . .
S01 S 0.6558(9) 0.4491(8) 0.8926(6) 0.170(3) Uani 1 1 d D U
N3 N 0.8582(6) 0.3860(6) 0.5579(5) 0.0287(15) Uani 1 1 d . .
N2 N 0.7070(7) 0.1901(6) 0.6228(5) 0.0332(16) Uani 1 1 d . .
N1 N 0.8606(7) 0.1107(6) 0.4761(5) 0.0325(16) Uani 1 1 d . .
O01 O 0.6637(11) 0.4432(9) 0.7970(8) 0.095(3) Uani 1 1 d D U
C36 C 0.9939(8) 0.3378(7) 0.6815(6) 0.0333(19) Uani 1 1 d . .
C16 C 1.0580(9) 0.1353(7) 0.3385(7) 0.0333(19) Uani 1 1 d . .
C29 C 0.6681(8) 0.0945(7) 0.6101(6) 0.0295(17) Uani 1 1 d . .
C45 C 0.6355(8) 0.4902(8) 0.3864(7) 0.039(2) Uani 1 1 d . .
O04 O 0.7900(9) 0.1117(8) 0.2158(7) 0.072(3) Uani 1 1 d . .
C26 C 0.4758(9) 0.0937(8) 0.7497(7) 0.044(2) Uani 1 1 d . .
H26 H 0.3951 0.0644 0.7917 0.053 Uiso 1 1 calc R U
C21 C 0.7505(9) 0.0470(8) 0.5316(7) 0.038(2) Uani 1 1 d . .
C41 C 0.7818(8) 0.4635(8) 0.5075(6) 0.033(2) Uani 1 1 d . .
C42 C 0.7640(9) 0.5707(7) 0.5147(7) 0.036(2) Uani 1 1 d . .
H42 H 0.8055 0.5988 0.5584 0.043 Uiso 1 1 calc R U
C25 C 0.5525(9) 0.0412(8) 0.6713(7) 0.040(2) Uani 1 1 d . .
C32 C 1.0911(9) 0.1677(8) 0.7356(7) 0.038(2) Uani 1 1 d . .
H32 H 1.1061 0.0944 0.7326 0.046 Uiso 1 1 calc R U
C35 C 1.0478(9) 0.3796(9) 0.7492(7) 0.041(2) Uani 1 1 d . .
H35 H 1.0336 0.4527 0.7536 0.049 Uiso 1 1 calc R U
C24 C 0.5219(11) -0.0570(10) 0.6525(8) 0.055(3) Uani 1 1 d . .
H24 H 0.4449 -0.0934 0.6931 0.066 Uiso 1 1 calc R U
C37 C 0.9184(8) 0.4098(7) 0.6220(6) 0.0316(18) Uani 1 1 d . .
H37 H 0.9124 0.4818 0.6310 0.038 Uiso 1 1 calc R U
C47 C 0.5987(9) 0.3391(9) 0.3177(7) 0.043(2) Uani 1 1 d . .
H47 H 0.5596 0.3073 0.2750 0.051 Uiso 1 1 calc R U
C17 C 0.9494(9) 0.0750(8) 0.4066(7) 0.037(2) Uani 1 1 d . .
H17 H 0.9424 0.0032 0.4000 0.044 Uiso 1 1 calc R U
C49 C 0.7187(8) 0.4231(7) 0.4420(6) 0.0302(18) Uani 1 1 d . .
C48 C 0.6823(9) 0.2779(9) 0.3765(7) 0.042(2) Uani 1 1 d . .
H48 H 0.6960 0.2045 0.3734 0.050 Uiso 1 1 calc R U
C11 C 1.0825(8) 0.2411(8) 0.3430(6) 0.036(2) Uani 1 1 d . .
C31 C 1.0162(8) 0.2303(8) 0.6710(7) 0.035(2) Uani 1 1 d . .
C15 C 1.1356(9) 0.0856(8) 0.2619(7) 0.037(2) Uani 1 1 d . .
H15 H 1.1188 0.0137 0.2611 0.045 Uiso 1 1 calc R U
C44 C 0.6217(10) 0.5983(8) 0.3962(7) 0.045(2) Uani 1 1 d . .
H44 H 0.5676 0.6444 0.3595 0.054 Uiso 1 1 calc R U
C33 C 1.1426(9) 0.2115(9) 0.8028(7) 0.045(2) Uani 1 1 d . .
H33 H 1.1932 0.1680 0.8444 0.054 Uiso 1 1 calc R U
C28 C 0.6337(9) 0.2341(7) 0.6979(7) 0.0355(19) Uani 1 1 d . .
H28 H 0.6591 0.3006 0.7082 0.043 Uiso 1 1 calc R U
C43 C 0.6853(10) 0.6381(8) 0.4579(7) 0.042(2) Uani 1 1 d . .
H43 H 0.6761 0.7114 0.4623 0.051 Uiso 1 1 calc R U
C14 C 1.2364(9) 0.1384(8) 0.1870(7) 0.039(2) Uani 1 1 d . .
C46 C 0.5756(9) 0.4445(9) 0.3237(7) 0.042(2) Uani 1 1 d . .
H46 H 0.5195 0.4863 0.2856 0.050 Uiso 1 1 calc R U
C22 C 0.7155(12) -0.0478(10) 0.5155(9) 0.056(3) Uani 1 1 d . .
H22 H 0.7689 -0.0790 0.4621 0.067 Uiso 1 1 calc R U
C12 C 1.1885(10) 0.2936(9) 0.2665(7) 0.046(2) Uani 1 1 d . .
H12 H 1.2079 0.3647 0.2680 0.055 Uiso 1 1 calc R U
C27 C 0.5206(10) 0.1849(9) 0.7620(7) 0.044(2) Uani 1 1 d . .
H27 H 0.4734 0.2175 0.8167 0.053 Uiso 1 1 calc R U
C13 C 1.2630(9) 0.2449(8) 0.1912(7) 0.042(2) Uani 1 1 d . .
H13 H 1.3327 0.2823 0.1416 0.050 Uiso 1 1 calc R U
C02 C 0.8658(10) 0.1618(10) 0.1456(9) 0.053(3) Uani 1 1 d . .
C34 C 1.1210(9) 0.3171(7) 0.8098(6) 0.0329(18) Uani 1 1 d . .
C23 C 0.6007(12) -0.1003(11) 0.5774(10) 0.068(4) Uani 1 1 d . .
H23 H 0.5788 -0.1672 0.5658 0.081 Uiso 1 1 calc R U
C03 C 0.9314(15) 0.1091(14) 0.0577(9) 0.080(4) Uani 1 1 d . .
H03A H 1.0272 0.1209 0.0411 0.120 Uiso 1 1 calc R U
H03B H 0.8953 0.1395 -0.0012 0.120 Uiso 1 1 calc R U
H03C H 0.9145 0.0326 0.0758 0.120 Uiso 1 1 calc R U
C04 C 0.9072(14) 0.2709(12) 0.1401(11) 0.075(4) Uani 1 1 d . .
H04A H 0.8816 0.2898 0.2077 0.113 Uiso 1 1 calc R U
H04B H 0.8640 0.3202 0.0937 0.113 Uiso 1 1 calc R U
H04C H 1.0038 0.2756 0.1153 0.113 Uiso 1 1 calc R U
F01 F 0.6966(18) 0.2557(12) 0.9357(13) 0.197(5) Uani 1 1 d D U
F02 F 0.6229(19) 0.3340(14) 1.0634(11) 0.210(6) Uani 1 1 d D U
O02 O 0.7804(17) 0.4693(16) 0.9181(13) 0.195(6) Uani 1 1 d D U
O03 O 0.559(2) 0.5218(15) 0.9387(14) 0.239(7) Uani 1 1 d D U
F03 F 0.4916(17) 0.3130(16) 0.9665(15) 0.238(6) Uani 1 1 d D U
C01 C 0.6178(19) 0.335(3) 0.9652(19) 0.187(4) Uani 1 1 d D U
loop_
_atom_site_aniso_label
_atom_site_aniso_U_11
_atom_site_aniso_U_22
_atom_site_aniso_U_33
_atom_site_aniso_U_23
_atom_site_aniso_U_13
_atom_site_aniso_U_12
I1 0.0460(4) 0.0651(5) 0.0324(3) -0.0083(3) 0.0042(3) 0.0102(3)
I2 0.0583(5) 0.0706(5) 0.0336(4) 0.0062(3) -0.0154(3) -0.0180(4)
Fe1 0.0278(7) 0.0317(7) 0.0210(6) -0.0007(5) 0.0020(5) -0.0051(5)
O2 0.035(3) 0.037(3) 0.031(3) 0.000(3) -0.004(3) -0.002(3)
N4 0.032(4) 0.031(4) 0.024(3) 0.004(3) 0.001(3) -0.006(3)
O1 0.034(3) 0.053(4) 0.025(3) 0.000(3) 0.003(3) -0.018(3)
S01 0.206(6) 0.192(5) 0.126(4) -0.034(4) -0.060(4) 0.002(4)
N3 0.022(3) 0.038(4) 0.019(3) -0.002(3) 0.006(3) -0.001(3)
N2 0.028(4) 0.042(4) 0.024(3) 0.001(3) 0.000(3) -0.005(3)
N1 0.027(4) 0.040(4) 0.025(3) 0.001(3) 0.003(3) -0.007(3)
O01 0.109(7) 0.091(7) 0.104(6) -0.015(5) -0.064(6) 0.004(6)
C36 0.026(4) 0.037(5) 0.028(4) 0.002(4) 0.002(3) 0.002(3)
C16 0.030(4) 0.032(5) 0.032(4) -0.004(4) 0.004(3) -0.001(3)
C29 0.024(4) 0.031(4) 0.027(4) -0.001(3) 0.003(3) 0.003(3)
C45 0.024(4) 0.054(6) 0.027(4) 0.014(4) 0.001(3) -0.007(4)
O04 0.053(5) 0.079(6) 0.067(6) -0.003(5) 0.016(4) -0.012(4)
C26 0.031(5) 0.046(6) 0.040(5) 0.015(4) 0.002(4) -0.002(4)
C21 0.038(5) 0.036(5) 0.033(5) 0.003(4) -0.002(4) -0.014(4)
C41 0.025(4) 0.046(5) 0.020(4) 0.006(4) 0.003(3) -0.011(4)
C42 0.038(5) 0.037(5) 0.027(4) -0.001(4) 0.000(4) -0.002(4)
C25 0.035(5) 0.045(6) 0.032(5) 0.006(4) 0.003(4) -0.011(4)
C32 0.038(5) 0.041(5) 0.028(4) 0.006(4) -0.002(4) -0.002(4)
C35 0.037(5) 0.052(6) 0.026(4) 0.004(4) -0.001(4) -0.008(4)
C24 0.044(6) 0.064(7) 0.045(6) 0.003(5) 0.009(5) -0.028(5)
C37 0.029(4) 0.033(5) 0.029(4) -0.003(3) 0.001(3) -0.002(3)
C47 0.032(5) 0.060(7) 0.031(4) 0.007(4) -0.008(4) -0.014(4)
C17 0.036(5) 0.037(5) 0.035(5) 0.003(4) -0.006(4) -0.008(4)
C49 0.028(4) 0.032(5) 0.023(4) 0.008(3) 0.001(3) -0.005(3)
C48 0.035(5) 0.058(6) 0.028(4) 0.002(4) -0.002(4) -0.021(4)
C11 0.024(4) 0.056(6) 0.023(4) -0.005(4) 0.004(3) -0.008(4)
C31 0.022(4) 0.042(5) 0.030(4) 0.006(4) 0.006(3) 0.000(4)
C15 0.034(5) 0.034(5) 0.040(5) -0.009(4) 0.000(4) 0.004(4)
C44 0.039(5) 0.047(6) 0.034(5) 0.012(4) 0.003(4) 0.002(4)
C33 0.036(5) 0.065(7) 0.025(4) 0.011(4) -0.002(4) -0.006(5)
C28 0.038(5) 0.033(5) 0.029(4) -0.002(4) 0.001(4) 0.003(4)
C43 0.047(5) 0.035(5) 0.033(5) 0.003(4) 0.004(4) 0.001(4)
C14 0.038(5) 0.043(5) 0.030(4) -0.011(4) 0.002(4) 0.008(4)
C46 0.029(4) 0.056(6) 0.032(4) 0.011(4) -0.004(4) -0.003(4)
C22 0.057(7) 0.057(7) 0.045(6) -0.007(5) 0.011(5) -0.024(6)
C12 0.041(5) 0.053(6) 0.036(5) 0.003(4) 0.001(4) -0.020(5)
C27 0.035(5) 0.053(6) 0.031(5) 0.004(4) 0.009(4) 0.008(4)
C13 0.033(5) 0.053(6) 0.032(5) -0.013(4) 0.012(4) 0.000(4)
C02 0.040(5) 0.059(7) 0.046(6) -0.001(5) 0.009(5) 0.005(5)
C34 0.040(5) 0.033(5) 0.023(4) -0.011(3) 0.001(3) 0.003(4)
C23 0.060(7) 0.074(9) 0.061(7) -0.014(6) 0.015(6) -0.043(7)
C03 0.076(9) 0.124(13) 0.035(6) -0.014(7) 0.001(6) -0.013(9)
C04 0.065(8) 0.076(10) 0.069(9) 0.010(7) -0.001(7) -0.009(7)
F01 0.230(10) 0.193(9) 0.167(10) 0.000(8) -0.068(9) 0.003(9)
F02 0.233(12) 0.240(12) 0.151(8) 0.000(7) -0.055(8) -0.020(10)
O02 0.232(10) 0.246(12) 0.152(10) -0.068(10) -0.098(9) -0.034(9)
O03 0.265(12) 0.238(10) 0.189(12) -0.062(10) 0.000(11) 0.047(11)
F03 0.212(9) 0.278(12) 0.233(12) -0.044(11) -0.060(9) -0.039(8)
C01 0.204(7) 0.207(6) 0.151(6) -0.013(6) -0.053(6) -0.007(6)
loop_
_atom_type_symbol
_atom_type_description
_atom_type_scat_dispersion_real
_atom_type_scat_dispersion_imag
_atom_type_scat_source
C C 0.0181 0.0091 'International Tables Vol C Tables 4.2.6.8 and 6.1.1.4'
H H 0.0000 0.0000 'International Tables Vol C Tables 4.2.6.8 and 6.1.1.4'
N N 0.0311 0.0180 'International Tables Vol C Tables 4.2.6.8 and 6.1.1.4'
O O 0.0492 0.0322 'International Tables Vol C Tables 4.2.6.8 and 6.1.1.4'
F F 0.0727 0.0534 'International Tables Vol C Tables 4.2.6.8 and 6.1.1.4'
S S 0.3331 0.5567 'International Tables Vol C Tables 4.2.6.8 and 6.1.1.4'
Fe Fe -1.1336 3.1974 'International Tables Vol C Tables 4.2.6.8 and 6.1.1.4'
I I -0.3257 6.8362 'International Tables Vol C Tables 4.2.6.8 and 6.1.1.4'
loop_
_geom_angle_atom_site_label_1
_geom_angle_atom_site_label_2
_geom_angle_atom_site_label_3
_geom_angle
O2 Fe1 O1 92.4(3)
O2 Fe1 N3 94.3(3)
O1 Fe1 N3 87.9(3)
O2 Fe1 N1 88.6(3)
O1 Fe1 N1 93.3(3)
N3 Fe1 N1 176.8(3)
O2 Fe1 N2 89.5(3)
O1 Fe1 N2 175.5(3)
N3 Fe1 N2 96.0(3)
N1 Fe1 N2 82.7(3)
O2 Fe1 N4 175.8(3)
O1 Fe1 N4 90.1(3)
N3 Fe1 N4 82.5(3)
N1 Fe1 N4 94.6(3)
N2 Fe1 N4 88.2(3)
C31 O2 Fe1 125.4(6)
C48 N4 C49 118.9(8)
C48 N4 Fe1 127.8(7)
C49 N4 Fe1 113.3(6)
C11 O1 Fe1 126.5(6)
O01 S01 O03 118.1(10)
O01 S01 O02 116.1(10)
O03 S01 O02 105.6(10)
O01 S01 C01 110.7(8)
O03 S01 C01 103.9(10)
O02 S01 C01 100.3(9)
C37 N3 C41 120.7(8)
C37 N3 Fe1 125.5(6)
C41 N3 Fe1 113.8(6)
C28 N2 C29 117.9(7)
C28 N2 Fe1 128.9(6)
C29 N2 Fe1 113.1(6)
C17 N1 C21 120.0(8)
C17 N1 Fe1 125.8(6)
C21 N1 Fe1 114.1(6)
C35 C36 C31 120.8(8)
C35 C36 C37 117.0(9)
C31 C36 C37 122.2(8)
C15 C16 C11 120.4(8)
C15 C16 C17 116.6(8)
C11 C16 C17 123.0(8)
N2 C29 C25 123.5(8)
N2 C29 C21 117.0(7)
C25 C29 C21 119.5(8)
C44 C45 C46 124.3(9)
C44 C45 C49 118.0(9)
C46 C45 C49 117.7(10)
C27 C26 C25 118.4(8)
C27 C26 H26 120.8
C25 C26 H26 120.8
C22 C21 N1 127.9(9)
C22 C21 C29 119.2(8)
N1 C21 C29 112.8(8)
C42 C41 N3 128.0(8)
C42 C41 C49 118.7(8)
N3 C41 C49 113.4(8)
C41 C42 C43 120.9(9)
C41 C42 H42 119.6
C43 C42 H42 119.6
C24 C25 C29 119.0(9)
C24 C25 C26 124.9(8)
C29 C25 C26 116.0(9)
C33 C32 C31 121.5(10)
C33 C32 H32 119.3
C31 C32 H32 119.3
C34 C35 C36 121.4(10)
C34 C35 H35 119.3
C36 C35 H35 119.3
C23 C24 C25 120.6(9)
C23 C24 H24 119.7
C25 C24 H24 119.7
N3 C37 C36 126.2(9)
N3 C37 H37 116.9
C36 C37 H37 116.9
C46 C47 C48 119.1(9)
C46 C47 H47 120.4
C48 C47 H47 120.4
N1 C17 C16 125.4(9)
N1 C17 H17 117.3
C16 C17 H17 117.3
N4 C49 C41 116.9(8)
N4 C49 C45 122.3(8)
C41 C49 C45 120.8(9)
N4 C48 C47 122.5(10)
N4 C48 H48 118.7
C47 C48 H48 118.7
O1 C11 C16 125.5(7)
O1 C11 C12 117.6(9)
C16 C11 C12 116.9(9)
O2 C31 C36 126.1(8)
O2 C31 C32 117.5(9)
C36 C31 C32 116.3(9)
C14 C15 C16 121.9(9)
C14 C15 H15 119.0
C16 C15 H15 119.0
C43 C44 C45 121.2(9)
C43 C44 H44 119.4
C45 C44 H44 119.4
C34 C33 C32 120.7(9)
C34 C33 H33 119.7
C32 C33 H33 119.7
N2 C28 C27 121.5(9)
N2 C28 H28 119.3
C27 C28 H28 119.3
C44 C43 C42 120.4(10)
C44 C43 H43 119.8
C42 C43 H43 119.8
C15 C14 C13 118.3(8)
C15 C14 I1 121.1(7)
C13 C14 I1 120.6(6)
C47 C46 C45 119.5(9)
C47 C46 H46 120.3
C45 C46 H46 120.3
C21 C22 C23 120.7(11)
C21 C22 H22 119.6
C23 C22 H22 119.6
C13 C12 C11 122.4(10)
C13 C12 H12 118.8
C11 C12 H12 118.8
C26 C27 C28 122.6(10)
C26 C27 H27 118.7
C28 C27 H27 118.7
C12 C13 C14 120.1(8)
C12 C13 H13 120.0
C14 C13 H13 120.0
O04 C02 C04 125.1(12)
O04 C02 C03 118.8(12)
C04 C02 C03 116.0(11)
C35 C34 C33 119.3(9)
C35 C34 I2 120.2(7)
C33 C34 I2 120.4(7)
C24 C23 C22 120.9(11)
C24 C23 H23 119.5
C22 C23 H23 119.5
C02 C03 H03A 109.5
C02 C03 H03B 109.5
H03A C03 H03B 109.5
C02 C03 H03C 109.5
H03A C03 H03C 109.5
H03B C03 H03C 109.5
C02 C04 H04A 109.5
C02 C04 H04B 109.5
H04A C04 H04B 109.5
C02 C04 H04C 109.5
H04A C04 H04C 109.5
H04B C04 H04C 109.5
F01 C01 F02 106(2)
F01 C01 S01 114(2)
F02 C01 S01 113(2)
F01 C01 F03 109(2)
F02 C01 F03 107(2)
S01 C01 F03 108(2)
loop_
_geom_bond_atom_site_label_1
_geom_bond_atom_site_label_2
_geom_bond_distance
I1 C14 2.074(9)
I2 C34 2.096(9)
Fe1 O2 1.916(6)
Fe1 O1 1.923(6)
Fe1 N3 1.947(7)
Fe1 N1 1.952(8)
Fe1 N2 1.977(7)
Fe1 N4 1.987(7)
O2 C31 1.324(11)
N4 C48 1.322(12)
N4 C49 1.351(11)
O1 C11 1.316(12)
S01 O01 1.320(11)
S01 O03 1.444(14)
S01 O02 1.467(14)
S01 C01 1.62(4)
N3 C37 1.286(11)
N3 C41 1.418(11)
N2 C28 1.330(12)
N2 C29 1.366(11)
N1 C17 1.294(12)
N1 C21 1.419(10)
C36 C35 1.395(13)
C36 C31 1.411(13)
C36 C37 1.439(12)
C16 C15 1.401(13)
C16 C11 1.409(13)
C16 C17 1.440(11)
C29 C25 1.420(11)
C29 C21 1.422(13)
C45 C44 1.412(15)
C45 C46 1.403(14)
C45 C49 1.432(12)
O04 C02 1.196(13)
C26 C27 1.337(15)
C26 C25 1.435(15)
C26 H26 0.9500
C21 C22 1.360(15)
C41 C42 1.393(13)
C41 C49 1.419(12)
C42 C43 1.411(13)
C42 H42 0.9500
C25 C24 1.399(15)
C32 C33 1.390(14)
C32 C31 1.423(12)
C32 H32 0.9500
C35 C34 1.376(13)
C35 H35 0.9500
C24 C23 1.347(17)
C24 H24 0.9500
C37 H37 0.9500
C47 C46 1.371(15)
C47 C48 1.428(13)
C47 H47 0.9500
C17 H17 0.9500
C48 H48 0.9500
C11 C12 1.429(11)
C15 C14 1.387(13)
C15 H15 0.9500
C44 C43 1.375(15)
C44 H44 0.9500
C33 C34 1.375(14)
C33 H33 0.9500
C28 C27 1.393(12)
C28 H28 0.9500
C43 H43 0.9500
C14 C13 1.422(14)
C46 H46 0.9500
C22 C23 1.412(13)
C22 H22 0.9500
C12 C13 1.369(14)
C12 H12 0.9500
C27 H27 0.9500
C13 H13 0.9500
C02 C04 1.469(18)
C02 C03 1.502(18)
C23 H23 0.9500
C03 H03A 0.9800
C03 H03B 0.9800
C03 H03C 0.9800
C04 H04A 0.9800
C04 H04B 0.9800
C04 H04C 0.9800
F01 C01 1.33(2)
F02 C01 1.368(19)
F03 C01 1.350(19)
loop_
_geom_torsion_atom_site_label_1
_geom_torsion_atom_site_label_2
_geom_torsion_atom_site_label_3
_geom_torsion_atom_site_label_4
_geom_torsion
C28 N2 C29 C25 1.3(13)
Fe1 N2 C29 C25 -175.4(7)
C28 N2 C29 C21 -177.8(8)
Fe1 N2 C29 C21 5.5(10)
C17 N1 C21 C22 -7.1(16)
Fe1 N1 C21 C22 174.8(10)
C17 N1 C21 C29 175.5(8)
Fe1 N1 C21 C29 -2.7(10)
N2 C29 C21 C22 -179.6(9)
C25 C29 C21 C22 1.3(14)
N2 C29 C21 N1 -1.9(12)
C25 C29 C21 N1 179.0(8)
C37 N3 C41 C42 2.6(12)
Fe1 N3 C41 C42 -176.1(7)
C37 N3 C41 C49 -178.0(7)
Fe1 N3 C41 C49 3.3(8)
N3 C41 C42 C43 179.2(8)
C49 C41 C42 C43 -0.2(12)
N2 C29 C25 C24 -179.5(9)
C21 C29 C25 C24 -0.4(14)
N2 C29 C25 C26 0.1(13)
C21 C29 C25 C26 179.1(8)
C27 C26 C25 C24 176.7(10)
C27 C26 C25 C29 -2.8(14)
C31 C36 C35 C34 -1.9(13)
C37 C36 C35 C34 179.7(8)
C29 C25 C24 C23 -0.1(17)
C26 C25 C24 C23 -179.6(12)
C41 N3 C37 C36 177.0(7)
Fe1 N3 C37 C36 -4.5(11)
C35 C36 C37 N3 -178.0(8)
C31 C36 C37 N3 3.6(13)
C21 N1 C17 C16 173.5(8)
Fe1 N1 C17 C16 -8.6(13)
C15 C16 C17 N1 -173.7(9)
C11 C16 C17 N1 2.5(15)
C48 N4 C49 C41 178.6(7)
Fe1 N4 C49 C41 -1.3(9)
C48 N4 C49 C45 -1.5(11)
Fe1 N4 C49 C45 178.6(6)
C42 C41 C49 N4 178.2(7)
N3 C41 C49 N4 -1.3(10)
C42 C41 C49 C45 -1.7(11)
N3 C41 C49 C45 178.8(7)
C44 C45 C49 N4 -177.8(7)
C46 C45 C49 N4 0.5(12)
C44 C45 C49 C41 2.1(12)
C46 C45 C49 C41 -179.5(7)
C49 N4 C48 C47 2.1(12)
Fe1 N4 C48 C47 -178.0(6)
C46 C47 C48 N4 -1.7(13)
Fe1 O1 C11 C16 0.7(13)
Fe1 O1 C11 C12 178.5(6)
C15 C16 C11 O1 177.9(9)
C17 C16 C11 O1 1.8(15)
C15 C16 C11 C12 0.1(14)
C17 C16 C11 C12 -176.0(9)
Fe1 O2 C31 C36 -5.6(11)
Fe1 O2 C31 C32 175.5(5)
C35 C36 C31 O2 -176.5(8)
C37 C36 C31 O2 1.9(13)
C35 C36 C31 C32 2.5(12)
C37 C36 C31 C32 -179.2(7)
C33 C32 C31 O2 177.0(8)
C33 C32 C31 C36 -2.0(12)
C11 C16 C15 C14 -1.5(15)
C17 C16 C15 C14 174.9(9)
C46 C45 C44 C43 -178.8(9)
C49 C45 C44 C43 -0.6(13)
C31 C32 C33 C34 0.8(13)
C29 N2 C28 C27 0.0(13)
Fe1 N2 C28 C27 176.1(7)
C45 C44 C43 C42 -1.3(14)
C41 C42 C43 C44 1.7(13)
C16 C15 C14 C13 2.0(15)
C16 C15 C14 I1 -176.0(7)
C48 C47 C46 C45 0.7(13)
C44 C45 C46 C47 178.1(8)
C49 C45 C46 C47 -0.1(12)
N1 C21 C22 C23 -179.0(11)
C29 C21 C22 C23 -1.7(18)
O1 C11 C12 C13 -177.3(9)
C16 C11 C12 C13 0.6(15)
C25 C26 C27 C28 4.2(15)
N2 C28 C27 C26 -2.9(15)
C11 C12 C13 C14 0.0(16)
C15 C14 C13 C12 -1.3(15)
I1 C14 C13 C12 176.8(8)
C36 C35 C34 C33 0.6(13)
C36 C35 C34 I2 178.2(6)
C32 C33 C34 C35 -0.1(13)
C32 C33 C34 I2 -177.7(6)
C25 C24 C23 C22 0(2)
C21 C22 C23 C24 1(2)
O01 S01 C01 F01 52.5(14)
O03 S01 C01 F01 -179.7(14)
O02 S01 C01 F01 -70.7(14)
O01 S01 C01 F02 173.2(12)
O03 S01 C01 F02 -59.0(15)
O02 S01 C01 F02 50.0(14)
O01 S01 C01 F03 -68.7(13)
O03 S01 C01 F03 59.1(15)
O02 S01 C01 F03 168.1(13)
