#------------------------------------------------------------------------------
#$Date: 2017-05-06 00:46:02 +0300 (Sat, 06 May 2017) $
#$Revision: 196334 $
#$URL: file:///home/coder/svn-repositories/cod/cif/1/54/55/1545550.cif $
#------------------------------------------------------------------------------
#
# This file is available in the Crystallography Open Database (COD),
# http://www.crystallography.net/
#
# All data on this site have been placed in the public domain by the
# contributors.
#
data_1545550
loop_
_publ_author_name
'Arnold, Polly L.'
'Stevens, Charlotte J.'
'Bell, Nicola L.'
'Lord, Rianne M.'
'Goldberg, Jonathan M.'
'Nichol, Gary S.'
'Love, Jason B.'
_publ_section_title
;
 Multi-electron reduction of sulfur and carbon disulfide using binuclear
 uranium(iii) borohydride complexes
;
_journal_issue                   5
_journal_name_full               'Chem. Sci.'
_journal_page_first              3609
_journal_paper_doi               10.1039/C7SC00382J
_journal_volume                  8
_journal_year                    2017
_chemical_formula_moiety         'C94 H106 N8 O2 S2 U2, C6 H6'
_chemical_formula_sum            'C100 H112 N8 O2 S2 U2'
_chemical_formula_weight         1998.15
_chemical_name_systematic
;
 ?
;
_space_group_crystal_system      monoclinic
_space_group_IT_number           15
_space_group_name_Hall           '-C 2yc'
_space_group_name_H-M_alt        'C 1 2/c 1'
_symmetry_space_group_name_Hall  '-C 2yc'
_symmetry_space_group_name_H-M   'C 1 2/c 1'
_atom_sites_solution_hydrogens   geom
_audit_creation_method           SHELXL-2014
_audit_update_record
;
2016-05-16 deposited with the CCDC.
2017-03-02 downloaded from the CCDC.
;
_cell_angle_alpha                90
_cell_angle_beta                 112.037(3)
_cell_angle_gamma                90
_cell_formula_units_Z            4
_cell_length_a                   17.3745(5)
_cell_length_b                   34.2240(8)
_cell_length_c                   17.0130(5)
_cell_measurement_reflns_used    17522
_cell_measurement_temperature    170(2)
_cell_measurement_theta_max      28.4630
_cell_measurement_theta_min      3.4630
_cell_volume                     9377.3(5)
_computing_cell_refinement
;
CrysAlisPro, Agilent Technologies,
Version 1.171.36.24 (release 03-12-2012 CrysAlis171 .NET)
(compiled Dec  3 2012,18:21:49)
;
_computing_data_collection
;
CrysAlisPro, Agilent Technologies,
Version 1.171.36.24 (release 03-12-2012 CrysAlis171 .NET)
(compiled Dec  3 2012,18:21:49)
;
_computing_data_reduction
;
CrysAlisPro, Agilent Technologies,
Version 1.171.36.24 (release 03-12-2012 CrysAlis171 .NET)
(compiled Dec  3 2012,18:21:49)
;
_computing_molecular_graphics    ortep
_computing_publication_material  mercury
_computing_structure_refinement  'SHELXL-2014 (Sheldrick, 2014)'
_computing_structure_solution    'SHELXD-97, direct methods'
_diffrn_ambient_temperature      170(2)
_diffrn_detector_area_resol_mean 8.0521
_diffrn_measured_fraction_theta_full 0.998
_diffrn_measured_fraction_theta_max 0.998
_diffrn_measurement_device_type  'Xcalibur, Eos'
_diffrn_measurement_method       '\w scans'
_diffrn_radiation_type           MoK\a
_diffrn_radiation_wavelength     0.71073
_diffrn_reflns_av_R_equivalents  0.0692
_diffrn_reflns_av_unetI/netI     0.0549
_diffrn_reflns_Laue_measured_fraction_full 0.998
_diffrn_reflns_Laue_measured_fraction_max 0.998
_diffrn_reflns_limit_h_max       21
_diffrn_reflns_limit_h_min       -21
_diffrn_reflns_limit_k_max       42
_diffrn_reflns_limit_k_min       -42
_diffrn_reflns_limit_l_max       21
_diffrn_reflns_limit_l_min       -21
_diffrn_reflns_number            57840
_diffrn_reflns_point_group_measured_fraction_full 0.998
_diffrn_reflns_point_group_measured_fraction_max 0.998
_diffrn_reflns_theta_full        25.242
_diffrn_reflns_theta_max         26.372
_diffrn_reflns_theta_min         3.096
_exptl_absorpt_coefficient_mu    3.545
_exptl_absorpt_correction_T_max  1.00000
_exptl_absorpt_correction_T_min  0.57031
_exptl_absorpt_correction_type   multi-scan
_exptl_absorpt_process_details
;
 CrysAlisPro, Agilent Technologies,
Version 1.171.36.24 (release 03-12-2012 CrysAlis171 .NET)
(compiled Dec  3 2012,18:21:49)
Empirical absorption correction using spherical harmonics,
 implemented in SCALE3 ABSPACK scaling algorithm.
;
_exptl_crystal_colour            orange
_exptl_crystal_density_diffrn    1.415
_exptl_crystal_description       needle
_exptl_crystal_F_000             4000
_exptl_crystal_size_max          0.4666
_exptl_crystal_size_mid          0.0567
_exptl_crystal_size_min          0.0297
_platon_squeeze_details
;
;
_refine_diff_density_max         2.593
_refine_diff_density_min         -1.042
_refine_diff_density_rms         0.117
_refine_ls_extinction_method     none
_refine_ls_goodness_of_fit_ref   0.804
_refine_ls_hydrogen_treatment    constr
_refine_ls_matrix_type           full
_refine_ls_number_parameters     519
_refine_ls_number_reflns         9563
_refine_ls_number_restraints     24
_refine_ls_restrained_S_all      0.803
_refine_ls_R_factor_all          0.0648
_refine_ls_R_factor_gt           0.0390
_refine_ls_shift/su_max          0.001
_refine_ls_shift/su_mean         0.000
_refine_ls_structure_factor_coef Fsqd
_refine_ls_weighting_details
'w=1/[\s^2^(Fo^2^)+(0.0605P)^2^+81.8008P] where P=(Fo^2^+2Fc^2^)/3'
_refine_ls_weighting_scheme      calc
_refine_ls_wR_factor_gt          0.0916
_refine_ls_wR_factor_ref         0.1019
_reflns_Friedel_coverage         0.000
_reflns_number_gt                7001
_reflns_number_total             9563
_reflns_threshold_expression     'I > 2\s(I)'
_cod_data_source_file            c7sc00382j2.cif
_cod_data_source_block           shelx_4
_cod_depositor_comments
'Adding full bibliography for 1545549--1545553.cif.'
_cod_database_code               1545550
_shelx_space_group_comment
;
The symmetry employed for this shelxl refinement is uniquely defined
by the following loop, which should always be used as a source of
symmetry information in preference to the above space-group names.
They are only intended as comments.
;
_shelxl_version_number           2014-3
_shelx_res_file
;
TITL P14075 in C2/c
CELL  0.71073  17.3745  34.2240  17.0130   90.000  112.037   90.000
ZERR     4.00   0.0005   0.0008   0.0005    0.000    0.003    0.000
LATT   7
SYMM  - X,   Y, 1/2 - Z
SFAC  C    H    N    O    S    U
UNIT  400  448  32   8    8    8
MERG   2
EQIV $1   -x+1, y, -z+1/2
EQIV $2   -x, y, -z+1/2
FLAT C48 C49 C50 C50_$2 C49_$2 C48_$2
DFIX 1.375 C48 C49 C49 C50 C50 C50_$2 C50_$2 C49_$2 C49_$2 C48_$2
DFIX 1.375 0.001   C48_$2 C48
FREE S2 S2_$1
FMAP   2
SIMU C48 C49 C50
DELU C48 C49 C50
PLAN   20
ACTA
BOND   $H
CONF
L.S.  12
TEMP  -103.00
WGHT    0.060500   81.800812
FVAR       1.00388
C1    1    0.395401    0.053721    0.004441    11.00000    0.03436    0.03657 =
         0.02659    0.00059    0.01222    0.00167
AFIX  43
H1    2    0.417118    0.057923   -0.038463    11.00000   -1.20000
AFIX   0
C2    1    0.383084    0.015177    0.025288    11.00000    0.03484    0.02949 =
         0.02139    0.00052    0.00728    0.00018
C3    1    0.397523   -0.019576   -0.008050    11.00000    0.04331    0.03868 =
         0.04935   -0.01239    0.02700   -0.00665
AFIX  43
H3    2    0.420505   -0.022693   -0.050288    11.00000   -1.20000
AFIX   0
C4    1    0.372084   -0.048649    0.031961    11.00000    0.05627    0.02656 =
         0.04613   -0.01280    0.02437   -0.00241
AFIX  43
H4    2    0.374527   -0.075927    0.022810    11.00000   -1.20000
AFIX   0
C5    1    0.341850   -0.030955    0.088738    11.00000    0.03678    0.02854 =
         0.02278   -0.00293    0.00673   -0.00501
C6    1    0.310844   -0.052386    0.148518    11.00000    0.05057    0.02299 =
         0.02770   -0.00129    0.01325   -0.01157
C7    1    0.389470   -0.068132    0.221459    11.00000    0.06853    0.03323 =
         0.04002   -0.00392    0.00738    0.00816
AFIX  23
H7A   2    0.420499   -0.084763    0.195877    11.00000   -1.20000
H7B   2    0.425394   -0.045544    0.248067    11.00000   -1.20000
AFIX   0
C8    1    0.376296   -0.091340    0.290765    11.00000    0.12437    0.07108 =
         0.03664    0.01478    0.02160    0.02673
AFIX  33
H8A   2    0.430172   -0.099524    0.332527    11.00000   -1.50000
H8B   2    0.347536   -0.075098    0.318595    11.00000   -1.50000
H8C   2    0.342621   -0.114475    0.266194    11.00000   -1.50000
AFIX   0
C9    1    0.257235   -0.087623    0.100580    11.00000    0.06527    0.02937 =
         0.03841   -0.00731    0.02013   -0.01122
AFIX  23
H9A   2    0.292636   -0.105305    0.082554    11.00000   -1.20000
H9B   2    0.238872   -0.102298    0.140581    11.00000   -1.20000
AFIX   0
C10   1    0.181087   -0.077016    0.023101    11.00000    0.05456    0.06458 =
         0.04108   -0.02631    0.02211   -0.02525
AFIX  33
H10A  2    0.151249   -0.100895   -0.002920    11.00000   -1.50000
H10B  2    0.144520   -0.060151    0.040216    11.00000   -1.50000
H10C  2    0.198403   -0.063164   -0.017939    11.00000   -1.50000
AFIX   0
C11   1    0.263117   -0.027449    0.186728    11.00000    0.05051    0.02516 =
         0.02435   -0.00064    0.01162   -0.00805
C12   1    0.200251   -0.039407    0.213579    11.00000    0.05484    0.03238 =
         0.03538   -0.00135    0.02125   -0.01503
AFIX  43
H12   2    0.172792   -0.063971    0.202232    11.00000   -1.20000
AFIX   0
C13   1    0.185122   -0.009511    0.259144    11.00000    0.05045    0.04392 =
         0.03035   -0.00094    0.02000   -0.01462
AFIX  43
H13   2    0.145075   -0.009337    0.284796    11.00000   -1.20000
AFIX   0
C14   1    0.239594    0.020653    0.260814    11.00000    0.04922    0.03166 =
         0.02351   -0.00145    0.01428   -0.00706
C15   1    0.251857    0.055799    0.306071    11.00000    0.04827    0.03567 =
         0.02001   -0.00033    0.01602   -0.00417
AFIX  43
H15   2    0.218608    0.060449    0.338496    11.00000   -1.20000
AFIX   0
C16   1    0.303931    0.116795    0.356508    11.00000    0.04829    0.02751 =
         0.02333    0.00055    0.01820    0.00065
C17   1    0.229704    0.132189    0.351054    11.00000    0.03984    0.03980 =
         0.03511   -0.00270    0.01652   -0.00296
AFIX  43
H17   2    0.179558    0.120605    0.313907    11.00000   -1.20000
AFIX   0
C18   1    0.226198    0.164864    0.399423    11.00000    0.04608    0.04045 =
         0.04108   -0.00121    0.02102    0.00935
AFIX  43
H18   2    0.173783    0.174420    0.396270    11.00000   -1.20000
AFIX   0
C19   1    0.296141    0.182890    0.450301    11.00000    0.05777    0.03355 =
         0.04009   -0.01108    0.02271    0.00335
AFIX  43
H19   2    0.292339    0.205416    0.481275    11.00000   -1.20000
AFIX   0
C20   1    0.375504    0.168599    0.458159    11.00000    0.05132    0.02370 =
         0.03535   -0.00390    0.02485   -0.00034
C21   1    0.380216    0.134436    0.411379    11.00000    0.03697    0.02765 =
         0.02211    0.00118    0.01556    0.00119
C22   1    0.458459    0.118626    0.424722    11.00000    0.04203    0.02438 =
         0.01906   -0.00098    0.01703   -0.00099
AFIX  43
H22   2    0.461757    0.095122    0.396442    11.00000   -1.20000
AFIX   0
C23   1    0.447969    0.185986    0.510361    11.00000    0.06100    0.02716 =
         0.03883   -0.00941    0.02547   -0.00060
AFIX  43
H23   2    0.444069    0.208913    0.540128    11.00000   -1.20000
AFIX   0
C24   1    0.317369    0.139976   -0.045074    11.00000    0.04172    0.03764 =
         0.03401    0.00616    0.01740    0.00627
AFIX  43
H24   2    0.264163    0.129787   -0.052766    11.00000   -1.20000
AFIX   0
C25   1    0.323462    0.175059   -0.086752    11.00000    0.04869    0.04491 =
         0.03583    0.01282    0.01557    0.01808
AFIX  43
H25   2    0.274415    0.188020   -0.122355    11.00000   -1.20000
AFIX   0
C26   1    0.601403    0.190176    0.576151    11.00000    0.06057    0.02991 =
         0.03398   -0.01429    0.02318   -0.01013
AFIX  43
H26   2    0.598418    0.213434    0.605355    11.00000   -1.20000
AFIX   0
C27   1    0.526820    0.171948    0.522175    11.00000    0.05350    0.02538 =
         0.02677   -0.00434    0.01760   -0.00381
C28   1    0.531250    0.136204    0.477910    11.00000    0.04577    0.02262 =
         0.02299   -0.00156    0.01783    0.00006
C29   1    0.386440    0.120783    0.005595    11.00000    0.04283    0.02873 =
         0.02199    0.00321    0.01880    0.00372
C30   1    0.170353    0.120657    0.051603    11.00000    0.03649    0.02973 =
         0.02517    0.00134    0.01555   -0.00335
C31   1    0.101341    0.104233   -0.013748    11.00000    0.04536    0.02942 =
         0.02917   -0.00277    0.02053   -0.00267
C32   1    0.037362    0.128798   -0.059681    11.00000    0.04076    0.04388 =
         0.03396   -0.00322    0.01261   -0.00307
AFIX  43
H32   2   -0.009764    0.117785   -0.102979    11.00000   -1.20000
AFIX   0
C33   1    0.038311    0.168828   -0.045867    11.00000    0.04937    0.03854 =
         0.04350    0.00473    0.01457    0.00304
C34   1    0.108571    0.183591    0.016831    11.00000    0.05918    0.02884 =
         0.04398   -0.00089    0.01697    0.00201
AFIX  43
H34   2    0.110841    0.210979    0.026532    11.00000   -1.20000
AFIX   0
C35   1    0.175910    0.161506    0.066589    11.00000    0.05498    0.02641 =
         0.02613    0.00117    0.01802   -0.00327
C36   1    0.096583    0.060052   -0.033284    11.00000    0.04876    0.03389 =
         0.03207   -0.00433    0.01584   -0.00752
C37   1    0.017232    0.049128   -0.108252    11.00000    0.05367    0.04436 =
         0.03891   -0.00489    0.00677   -0.00917
AFIX  33
H37A  2   -0.031335    0.056607   -0.095589    11.00000   -1.50000
H37B  2    0.015969    0.062918   -0.159206    11.00000   -1.50000
H37C  2    0.016310    0.020873   -0.117911    11.00000   -1.50000
AFIX   0
C38   1    0.093752    0.036281    0.042632    11.00000    0.06986    0.03286 =
         0.04314    0.00449    0.01660   -0.01168
AFIX  33
H38A  2    0.046501    0.044928    0.056384    11.00000   -1.50000
H38B  2    0.087598    0.008462    0.027931    11.00000   -1.50000
H38C  2    0.145359    0.040355    0.091807    11.00000   -1.50000
AFIX   0
C39   1    0.168998    0.047699   -0.057135    11.00000    0.04824    0.04580 =
         0.04191   -0.01613    0.01659   -0.00141
AFIX  33
H39A  2    0.221346    0.054163   -0.010745    11.00000   -1.50000
H39B  2    0.166344    0.019461   -0.067372    11.00000   -1.50000
H39C  2    0.166003    0.061505   -0.108668    11.00000   -1.50000
AFIX   0
C40   1    0.248020    0.184447    0.132748    11.00000    0.04855    0.03095 =
         0.02848    0.00342    0.01639   -0.00427
C41   1    0.216333    0.202136    0.197707    11.00000    0.06390    0.04165 =
         0.03579   -0.00543    0.02082    0.00590
AFIX  33
H41A  2    0.165601    0.217119    0.168101    11.00000   -1.50000
H41B  2    0.204284    0.181144    0.230570    11.00000   -1.50000
H41C  2    0.258845    0.219460    0.235998    11.00000   -1.50000
AFIX   0
C42   1    0.274865    0.218315    0.088727    11.00000    0.06435    0.03131 =
         0.04705    0.00604    0.02127   -0.00888
AFIX  33
H42A  2    0.295417    0.207681    0.046783    11.00000   -1.50000
H42B  2    0.227183    0.235373    0.060296    11.00000   -1.50000
H42C  2    0.319032    0.233386    0.131163    11.00000   -1.50000
AFIX   0
C43   1    0.327309    0.161174    0.180449    11.00000    0.05402    0.03124 =
         0.02891   -0.00425    0.01304   -0.00680
AFIX  33
H43A  2    0.348327    0.149669    0.139649    11.00000   -1.50000
H43B  2    0.369414    0.178648    0.218804    11.00000   -1.50000
H43C  2    0.314853    0.140332    0.213375    11.00000   -1.50000
AFIX   0
C44   1   -0.036160    0.195267   -0.095582    11.00000    0.05767    0.05056 =
         0.05592    0.00486    0.00393    0.00665
C45   1   -0.098535    0.175051   -0.172981    11.00000    0.07691    0.07130 =
         0.08303   -0.00092   -0.02514    0.01962
AFIX  33
H45A  2   -0.117652    0.150844   -0.155422    11.00000   -1.50000
H45B  2   -0.146051    0.192377   -0.200142    11.00000   -1.50000
H45C  2   -0.072067    0.168916   -0.213218    11.00000   -1.50000
AFIX   0
C46   1   -0.080817    0.206266   -0.034753    11.00000    0.06627    0.07136 =
         0.10897    0.01571    0.02581    0.02351
AFIX  33
H46A  2   -0.100088    0.182439   -0.015911    11.00000   -1.50000
H46B  2   -0.042048    0.220172    0.014581    11.00000   -1.50000
H46C  2   -0.128464    0.223122   -0.064587    11.00000   -1.50000
AFIX   0
C47   1   -0.007153    0.232584   -0.123566    11.00000    0.08661    0.05743 =
         0.06597    0.02514    0.00375    0.01423
AFIX  33
H47A  2    0.033068    0.245799   -0.074072    11.00000   -1.50000
H47B  2    0.019117    0.226324   -0.163910    11.00000   -1.50000
H47C  2   -0.054867    0.249784   -0.150834    11.00000   -1.50000
AFIX   0
C48   1    0.008364    0.078407    0.213581    11.00000    0.08666    0.07689 =
         0.06046   -0.01225    0.02643    0.00558
AFIX  43
H48   2    0.015733    0.054269    0.189727    11.00000   -1.20000
AFIX   0
C49   1    0.014520    0.112536    0.175132    11.00000    0.06053    0.10557 =
         0.04117   -0.00461    0.01577    0.00256
AFIX  43
H49   2    0.023623    0.112408    0.123450    11.00000   -1.20000
AFIX   0
C50   1    0.007299    0.147055    0.212615    11.00000    0.04022    0.08347 =
         0.06131    0.01165    0.01589   -0.00440
AFIX  43
H50   2    0.012324    0.171149    0.187222    11.00000   -1.20000
AFIX   0
N1    3    0.378215    0.084182    0.041651    11.00000    0.03648    0.02744 =
         0.02110    0.00242    0.01085   -0.00134
N2    3    0.347751    0.008596    0.085209    11.00000    0.03787    0.02861 =
         0.01624   -0.00250    0.01057   -0.00177
N3    3    0.288556    0.010030    0.215715    11.00000    0.04513    0.02644 =
         0.02203   -0.00384    0.01524   -0.00968
N4    3    0.305951    0.082829    0.307014    11.00000    0.03777    0.02747 =
         0.02212   -0.00376    0.01569   -0.00520
O1    4    0.232267    0.096344    0.100709    11.00000    0.04090    0.02564 =
         0.02309    0.00119    0.01252    0.00310
S1    5    0.500000    0.099312    0.250000    10.50000    0.03887    0.02335 =
         0.02607    0.00000    0.01099    0.00000
S2    5    0.489014    0.040092    0.280409    10.50000    0.03739    0.02602 =
         0.04142    0.00648   -0.00152   -0.00214
U1    6    0.341526    0.065751    0.167645    11.00000    0.03835    0.02218 =
         0.01960   -0.00118    0.01199   -0.00425
HKLF    4

REM  P14075 in C2/c
REM R1 =  0.0390 for    7001 Fo > 4sig(Fo)  and  0.0648 for all    9563 data
REM    519 parameters refined using     24 restraints

END

WGHT      0.0467      8.1916

REM Highest difference peak  2.593,  deepest hole -1.042,  1-sigma level  0.117
Q1    1   0.3924  0.0567  0.1943  11.00000  0.05    2.59
Q2    1   0.2908  0.0580  0.1415  11.00000  0.05    1.70
Q3    1   0.0236  0.0662  0.0005  11.00000  0.05    1.31
Q4    1   0.3064  0.0660  0.1985  11.00000  0.05    1.00
Q5    1   0.3545  0.0672  0.1279  11.00000  0.05    0.67
Q6    1   0.3280  0.0353  0.1011  11.00000  0.05    0.55
Q7    1   0.4518  0.0477  0.2417  11.00000  0.05    0.54
Q8    1   0.5000  0.0682  0.2500  10.50000  0.05    0.54
Q9    1   0.3941 -0.1861  0.1974  11.00000  0.05    0.53
Q10   1   0.3101  0.0314  0.1788  11.00000  0.05    0.52
Q11   1   0.5336  0.2009  0.7595  11.00000  0.05    0.49
Q12   1   0.4537  0.0831  0.2019  11.00000  0.05    0.49
Q13   1   0.2192  0.0681  0.0950  11.00000  0.05    0.48
Q14   1   0.1841  0.1002  0.0795  11.00000  0.05    0.46
Q15   1   0.3507  0.0947  0.2378  11.00000  0.05    0.43
Q16   1   0.4059  0.0250  0.1614  11.00000  0.05    0.43
Q17   1   0.3665  0.0911  0.0966  11.00000  0.05    0.42
Q18   1   0.2991  0.0852  0.2450  11.00000  0.05    0.42
Q19   1   0.3370 -0.0657  0.1802  11.00000  0.05    0.42
Q20   1  -0.0316  0.0646 -0.1308  11.00000  0.05    0.41
;
_shelx_res_checksum              3689
loop_
_space_group_symop_operation_xyz
'x, y, z'
'-x, y, -z+1/2'
'x+1/2, y+1/2, z'
'-x+1/2, y+1/2, -z+1/2'
'-x, -y, -z'
'x, -y, z-1/2'
'-x+1/2, -y+1/2, -z'
'x+1/2, -y+1/2, z-1/2'
loop_
_atom_site_label
_atom_site_type_symbol
_atom_site_fract_x
_atom_site_fract_y
_atom_site_fract_z
_atom_site_U_iso_or_equiv
_atom_site_adp_type
_atom_site_occupancy
_atom_site_site_symmetry_order
_atom_site_calc_flag
_atom_site_refinement_flags_posn
_atom_site_refinement_flags_adp
_atom_site_refinement_flags_occupancy
C1 C 0.3954(3) 0.05372(16) 0.0044(4) 0.0323(12) Uani 1 1 d . . .
H1 H 0.4171 0.0579 -0.0385 0.039 Uiso 1 1 calc R U .
C2 C 0.3831(3) 0.01518(15) 0.0253(3) 0.0295(12) Uani 1 1 d . . .
C3 C 0.3975(4) -0.01958(17) -0.0080(4) 0.0410(15) Uani 1 1 d . . .
H3 H 0.4205 -0.0227 -0.0503 0.049 Uiso 1 1 calc R U .
C4 C 0.3721(4) -0.04865(17) 0.0320(4) 0.0415(15) Uani 1 1 d . . .
H4 H 0.3745 -0.0759 0.0228 0.050 Uiso 1 1 calc R U .
C5 C 0.3418(3) -0.03095(15) 0.0887(3) 0.0307(12) Uani 1 1 d . . .
C6 C 0.3108(4) -0.05239(16) 0.1485(4) 0.0342(13) Uani 1 1 d . . .
C7 C 0.3895(5) -0.06813(18) 0.2215(4) 0.0510(17) Uani 1 1 d . . .
H7A H 0.4205 -0.0848 0.1959 0.061 Uiso 1 1 calc R U .
H7B H 0.4254 -0.0455 0.2481 0.061 Uiso 1 1 calc R U .
C8 C 0.3763(6) -0.0913(3) 0.2908(5) 0.080(3) Uani 1 1 d . . .
H8A H 0.4302 -0.0995 0.3325 0.120 Uiso 1 1 calc R U .
H8B H 0.3475 -0.0751 0.3186 0.120 Uiso 1 1 calc R U .
H8C H 0.3426 -0.1145 0.2662 0.120 Uiso 1 1 calc R U .
C9 C 0.2572(4) -0.08762(17) 0.1006(4) 0.0442(15) Uani 1 1 d . . .
H9A H 0.2926 -0.1053 0.0826 0.053 Uiso 1 1 calc R U .
H9B H 0.2389 -0.1023 0.1406 0.053 Uiso 1 1 calc R U .
C10 C 0.1811(4) -0.0770(2) 0.0231(4) 0.0522(18) Uani 1 1 d . . .
H10A H 0.1512 -0.1009 -0.0029 0.078 Uiso 1 1 calc R U .
H10B H 0.1445 -0.0602 0.0402 0.078 Uiso 1 1 calc R U .
H10C H 0.1984 -0.0632 -0.0179 0.078 Uiso 1 1 calc R U .
C11 C 0.2631(4) -0.02745(16) 0.1867(3) 0.0340(13) Uani 1 1 d . . .
C12 C 0.2003(4) -0.03941(17) 0.2136(4) 0.0396(14) Uani 1 1 d . . .
H12 H 0.1728 -0.0640 0.2022 0.048 Uiso 1 1 calc R U .
C13 C 0.1851(4) -0.00951(17) 0.2591(4) 0.0402(14) Uani 1 1 d . . .
H13 H 0.1451 -0.0093 0.2848 0.048 Uiso 1 1 calc R U .
C14 C 0.2396(4) 0.02065(16) 0.2608(3) 0.0346(13) Uani 1 1 d . . .
C15 C 0.2519(4) 0.05580(16) 0.3061(3) 0.0337(13) Uani 1 1 d . . .
H15 H 0.2186 0.0604 0.3385 0.040 Uiso 1 1 calc R U .
C16 C 0.3039(4) 0.11679(15) 0.3565(3) 0.0317(12) Uani 1 1 d . . .
C17 C 0.2297(4) 0.13219(17) 0.3511(4) 0.0375(13) Uani 1 1 d . . .
H17 H 0.1796 0.1206 0.3139 0.045 Uiso 1 1 calc R U .
C18 C 0.2262(4) 0.16486(18) 0.3994(4) 0.0412(14) Uani 1 1 d . . .
H18 H 0.1738 0.1744 0.3963 0.049 Uiso 1 1 calc R U .
C19 C 0.2961(4) 0.18289(18) 0.4503(4) 0.0425(15) Uani 1 1 d . . .
H19 H 0.2923 0.2054 0.4813 0.051 Uiso 1 1 calc R U .
C20 C 0.3755(4) 0.16860(16) 0.4582(4) 0.0343(13) Uani 1 1 d . . .
C21 C 0.3802(3) 0.13444(15) 0.4114(3) 0.0276(11) Uani 1 1 d . . .
C22 C 0.4585(3) 0.11863(15) 0.4247(3) 0.0269(11) Uani 1 1 d . . .
H22 H 0.4618 0.0951 0.3964 0.032 Uiso 1 1 calc R U .
C23 C 0.4480(4) 0.18599(17) 0.5104(4) 0.0404(14) Uani 1 1 d . . .
H23 H 0.4441 0.2089 0.5401 0.048 Uiso 1 1 calc R U .
C24 C 0.3174(4) 0.13998(17) -0.0451(4) 0.0369(13) Uani 1 1 d . . .
H24 H 0.2642 0.1298 -0.0528 0.044 Uiso 1 1 calc R U .
C25 C 0.3235(4) 0.17506(19) -0.0868(4) 0.0432(15) Uani 1 1 d . . .
H25 H 0.2744 0.1880 -0.1224 0.052 Uiso 1 1 calc R U .
C26 C 0.6014(4) 0.19018(17) 0.5762(4) 0.0399(14) Uani 1 1 d . . .
H26 H 0.5984 0.2134 0.6054 0.048 Uiso 1 1 calc R U .
C27 C 0.5268(4) 0.17195(16) 0.5222(3) 0.0345(13) Uani 1 1 d . . .
C28 C 0.5313(3) 0.13620(15) 0.4779(3) 0.0290(12) Uani 1 1 d . . .
C29 C 0.3864(3) 0.12078(15) 0.0056(3) 0.0293(12) Uani 1 1 d . . .
C30 C 0.1704(3) 0.12066(15) 0.0516(3) 0.0293(12) Uani 1 1 d . . .
C31 C 0.1013(4) 0.10423(16) -0.0137(4) 0.0327(12) Uani 1 1 d . . .
C32 C 0.0374(4) 0.12880(18) -0.0597(4) 0.0399(14) Uani 1 1 d . . .
H32 H -0.0098 0.1178 -0.1030 0.048 Uiso 1 1 calc R U .
C33 C 0.0383(4) 0.16883(18) -0.0459(4) 0.0446(15) Uani 1 1 d . . .
C34 C 0.1086(4) 0.18359(18) 0.0168(4) 0.0447(15) Uani 1 1 d . . .
H34 H 0.1108 0.2110 0.0265 0.054 Uiso 1 1 calc R U .
C35 C 0.1759(4) 0.16151(16) 0.0666(4) 0.0350(13) Uani 1 1 d . . .
C36 C 0.0966(4) 0.06005(17) -0.0333(4) 0.0380(13) Uani 1 1 d . . .
C37 C 0.0172(4) 0.0491(2) -0.1083(4) 0.0487(16) Uani 1 1 d . . .
H37A H -0.0313 0.0566 -0.0956 0.073 Uiso 1 1 calc R U .
H37B H 0.0160 0.0629 -0.1592 0.073 Uiso 1 1 calc R U .
H37C H 0.0163 0.0209 -0.1179 0.073 Uiso 1 1 calc R U .
C38 C 0.0938(4) 0.03628(18) 0.0426(4) 0.0500(17) Uani 1 1 d . . .
H38A H 0.0465 0.0449 0.0564 0.075 Uiso 1 1 calc R U .
H38B H 0.0876 0.0085 0.0279 0.075 Uiso 1 1 calc R U .
H38C H 0.1454 0.0404 0.0918 0.075 Uiso 1 1 calc R U .
C39 C 0.1690(4) 0.04770(19) -0.0571(4) 0.0454(15) Uani 1 1 d . . .
H39A H 0.2213 0.0542 -0.0107 0.068 Uiso 1 1 calc R U .
H39B H 0.1663 0.0195 -0.0674 0.068 Uiso 1 1 calc R U .
H39C H 0.1660 0.0615 -0.1087 0.068 Uiso 1 1 calc R U .
C40 C 0.2480(4) 0.18445(16) 0.1327(4) 0.0354(13) Uani 1 1 d . . .
C41 C 0.2163(4) 0.20214(19) 0.1977(4) 0.0465(15) Uani 1 1 d . . .
H41A H 0.1656 0.2171 0.1681 0.070 Uiso 1 1 calc R U .
H41B H 0.2043 0.1811 0.2306 0.070 Uiso 1 1 calc R U .
H41C H 0.2588 0.2195 0.2360 0.070 Uiso 1 1 calc R U .
C42 C 0.2749(4) 0.21831(18) 0.0887(4) 0.0475(16) Uani 1 1 d . . .
H42A H 0.2954 0.2077 0.0468 0.071 Uiso 1 1 calc R U .
H42B H 0.2272 0.2354 0.0603 0.071 Uiso 1 1 calc R U .
H42C H 0.3190 0.2334 0.1312 0.071 Uiso 1 1 calc R U .
C43 C 0.3273(4) 0.16117(17) 0.1804(4) 0.0388(14) Uani 1 1 d . . .
H43A H 0.3483 0.1497 0.1396 0.058 Uiso 1 1 calc R U .
H43B H 0.3694 0.1786 0.2188 0.058 Uiso 1 1 calc R U .
H43C H 0.3149 0.1403 0.2134 0.058 Uiso 1 1 calc R U .
C44 C -0.0362(5) 0.1953(2) -0.0956(5) 0.0598(19) Uani 1 1 d . . .
C45 C -0.0985(5) 0.1751(3) -0.1730(6) 0.093(3) Uani 1 1 d . . .
H45A H -0.1177 0.1508 -0.1554 0.140 Uiso 1 1 calc R U .
H45B H -0.1461 0.1924 -0.2001 0.140 Uiso 1 1 calc R U .
H45C H -0.0721 0.1689 -0.2132 0.140 Uiso 1 1 calc R U .
C46 C -0.0808(5) 0.2063(3) -0.0348(6) 0.084(3) Uani 1 1 d . . .
H46A H -0.1001 0.1824 -0.0159 0.126 Uiso 1 1 calc R U .
H46B H -0.0420 0.2202 0.0146 0.126 Uiso 1 1 calc R U .
H46C H -0.1285 0.2231 -0.0646 0.126 Uiso 1 1 calc R U .
C47 C -0.0072(5) 0.2326(2) -0.1236(6) 0.077(3) Uani 1 1 d . . .
H47A H 0.0331 0.2458 -0.0741 0.116 Uiso 1 1 calc R U .
H47B H 0.0191 0.2263 -0.1639 0.116 Uiso 1 1 calc R U .
H47C H -0.0549 0.2498 -0.1508 0.116 Uiso 1 1 calc R U .
C48 C 0.0084(5) 0.0784(3) 0.2136(3) 0.075(2) Uani 1 1 d D U .
H48 H 0.0157 0.0543 0.1897 0.090 Uiso 1 1 calc R U .
C49 C 0.0145(4) 0.1125(2) 0.1751(5) 0.070(2) Uani 1 1 d D U .
H49 H 0.0236 0.1124 0.1235 0.084 Uiso 1 1 calc R U .
C50 C 0.0073(4) 0.1471(2) 0.2126(4) 0.0626(19) Uani 1 1 d D U .
H50 H 0.0123 0.1711 0.1872 0.075 Uiso 1 1 calc R U .
N1 N 0.3782(3) 0.08418(13) 0.0417(3) 0.0283(10) Uani 1 1 d . . .
N2 N 0.3478(3) 0.00860(12) 0.0852(3) 0.0275(9) Uani 1 1 d . . .
N3 N 0.2886(3) 0.01003(12) 0.2157(3) 0.0304(10) Uani 1 1 d . . .
N4 N 0.3060(3) 0.08283(13) 0.3070(3) 0.0278(10) Uani 1 1 d . . .
O1 O 0.2323(2) 0.09634(10) 0.1007(2) 0.0297(8) Uani 1 1 d . . .
S1 S 0.5000 0.09931(5) 0.2500 0.0298(4) Uani 1 2 d S T P
S2 S 0.48901(18) 0.04009(8) 0.2804(2) 0.0397(7) Uani 0.5 1 d . . P
U1 U 0.34153(2) 0.06575(2) 0.16765(2) 0.02639(7) Uani 1 1 d . . .
loop_
_atom_site_aniso_label
_atom_site_aniso_U_11
_atom_site_aniso_U_22
_atom_site_aniso_U_33
_atom_site_aniso_U_23
_atom_site_aniso_U_13
_atom_site_aniso_U_12
C1 0.034(3) 0.037(3) 0.027(3) 0.001(2) 0.012(2) 0.002(2)
C2 0.035(3) 0.029(3) 0.021(3) 0.001(2) 0.007(2) 0.000(2)
C3 0.043(4) 0.039(3) 0.049(4) -0.012(3) 0.027(3) -0.007(3)
C4 0.056(4) 0.027(3) 0.046(4) -0.013(3) 0.024(3) -0.002(3)
C5 0.037(3) 0.029(3) 0.023(3) -0.003(2) 0.007(2) -0.005(2)
C6 0.051(3) 0.023(3) 0.028(3) -0.001(2) 0.013(3) -0.012(2)
C7 0.069(4) 0.033(3) 0.040(4) -0.004(3) 0.007(3) 0.008(3)
C8 0.124(8) 0.071(6) 0.037(4) 0.015(4) 0.022(5) 0.027(5)
C9 0.065(4) 0.029(3) 0.038(4) -0.007(3) 0.020(3) -0.011(3)
C10 0.055(4) 0.065(5) 0.041(4) -0.026(3) 0.022(3) -0.025(3)
C11 0.051(4) 0.025(3) 0.024(3) -0.001(2) 0.012(3) -0.008(2)
C12 0.055(4) 0.032(3) 0.035(3) -0.001(3) 0.021(3) -0.015(3)
C13 0.050(4) 0.044(4) 0.030(3) -0.001(3) 0.020(3) -0.015(3)
C14 0.049(3) 0.032(3) 0.024(3) -0.001(2) 0.014(3) -0.007(2)
C15 0.048(3) 0.036(3) 0.020(3) 0.000(2) 0.016(3) -0.004(2)
C16 0.048(3) 0.028(3) 0.023(3) 0.001(2) 0.018(3) 0.001(2)
C17 0.040(3) 0.040(3) 0.035(3) -0.003(3) 0.017(3) -0.003(3)
C18 0.046(4) 0.040(3) 0.041(4) -0.001(3) 0.021(3) 0.009(3)
C19 0.058(4) 0.034(3) 0.040(4) -0.011(3) 0.023(3) 0.003(3)
C20 0.051(4) 0.024(3) 0.035(3) -0.004(2) 0.025(3) 0.000(2)
C21 0.037(3) 0.028(3) 0.022(3) 0.001(2) 0.016(2) 0.001(2)
C22 0.042(3) 0.024(3) 0.019(3) -0.001(2) 0.017(2) -0.001(2)
C23 0.061(4) 0.027(3) 0.039(3) -0.009(3) 0.025(3) -0.001(3)
C24 0.042(3) 0.038(3) 0.034(3) 0.006(3) 0.017(3) 0.006(3)
C25 0.049(4) 0.045(4) 0.036(4) 0.013(3) 0.016(3) 0.018(3)
C26 0.061(4) 0.030(3) 0.034(3) -0.014(3) 0.023(3) -0.010(3)
C27 0.054(4) 0.025(3) 0.027(3) -0.004(2) 0.018(3) -0.004(2)
C28 0.046(3) 0.023(3) 0.023(3) -0.002(2) 0.018(2) 0.000(2)
C29 0.043(3) 0.029(3) 0.022(3) 0.003(2) 0.019(2) 0.004(2)
C30 0.036(3) 0.030(3) 0.025(3) 0.001(2) 0.016(2) -0.003(2)
C31 0.045(3) 0.029(3) 0.029(3) -0.003(2) 0.021(3) -0.003(2)
C32 0.041(3) 0.044(4) 0.034(3) -0.003(3) 0.013(3) -0.003(3)
C33 0.049(4) 0.039(3) 0.043(4) 0.005(3) 0.015(3) 0.003(3)
C34 0.059(4) 0.029(3) 0.044(4) -0.001(3) 0.017(3) 0.002(3)
C35 0.055(4) 0.026(3) 0.026(3) 0.001(2) 0.018(3) -0.003(2)
C36 0.049(4) 0.034(3) 0.032(3) -0.004(2) 0.016(3) -0.008(3)
C37 0.054(4) 0.044(4) 0.039(4) -0.005(3) 0.007(3) -0.009(3)
C38 0.070(5) 0.033(3) 0.043(4) 0.004(3) 0.017(3) -0.012(3)
C39 0.048(4) 0.046(4) 0.042(4) -0.016(3) 0.017(3) -0.001(3)
C40 0.049(4) 0.031(3) 0.028(3) 0.003(2) 0.016(3) -0.004(2)
C41 0.064(4) 0.042(4) 0.036(3) -0.005(3) 0.021(3) 0.006(3)
C42 0.064(4) 0.031(3) 0.047(4) 0.006(3) 0.021(3) -0.009(3)
C43 0.054(4) 0.031(3) 0.029(3) -0.004(2) 0.013(3) -0.007(3)
C44 0.058(4) 0.051(4) 0.056(5) 0.005(4) 0.004(4) 0.007(3)
C45 0.077(6) 0.071(6) 0.083(7) -0.001(5) -0.025(5) 0.020(5)
C46 0.066(6) 0.071(6) 0.109(8) 0.016(5) 0.026(5) 0.024(4)
C47 0.087(6) 0.057(5) 0.066(6) 0.025(4) 0.004(5) 0.014(4)
C48 0.087(6) 0.077(5) 0.060(5) -0.012(4) 0.026(5) 0.006(5)
C49 0.061(5) 0.106(6) 0.041(4) -0.005(4) 0.016(4) 0.003(5)
C50 0.040(4) 0.083(5) 0.061(5) 0.012(4) 0.016(4) -0.004(4)
N1 0.036(3) 0.027(2) 0.021(2) 0.0024(18) 0.0108(19) -0.0013(19)
N2 0.038(3) 0.029(2) 0.016(2) -0.0025(17) 0.0106(19) -0.0018(19)
N3 0.045(3) 0.026(2) 0.022(2) -0.0038(18) 0.015(2) -0.010(2)
N4 0.038(3) 0.027(2) 0.022(2) -0.0038(18) 0.016(2) -0.0052(19)
O1 0.041(2) 0.0256(19) 0.0231(19) 0.0012(15) 0.0125(17) 0.0031(16)
S1 0.0389(11) 0.0233(9) 0.0261(10) 0.000 0.0110(8) 0.000
S2 0.0374(16) 0.0260(14) 0.0414(18) 0.0065(12) -0.0015(13) -0.0021(12)
U1 0.03835(12) 0.02218(10) 0.01960(10) -0.00118(8) 0.01199(8) -0.00425(9)
loop_
_atom_type_symbol
_atom_type_description
_atom_type_scat_dispersion_real
_atom_type_scat_dispersion_imag
_atom_type_scat_source
C C 0.0033 0.0016 'International Tables Vol C Tables 4.2.6.8 and 6.1.1.4'
H H 0.0000 0.0000 'International Tables Vol C Tables 4.2.6.8 and 6.1.1.4'
N N 0.0061 0.0033 'International Tables Vol C Tables 4.2.6.8 and 6.1.1.4'
O O 0.0106 0.0060 'International Tables Vol C Tables 4.2.6.8 and 6.1.1.4'
S S 0.1246 0.1234 'International Tables Vol C Tables 4.2.6.8 and 6.1.1.4'
U U -9.6767 9.6646 'International Tables Vol C Tables 4.2.6.8 and 6.1.1.4'
loop_
_geom_angle_atom_site_label_1
_geom_angle_atom_site_label_2
_geom_angle_atom_site_label_3
_geom_angle
_geom_angle_site_symmetry_1
_geom_angle_site_symmetry_3
N1 C1 C2 122.8(5) . .
N1 C1 H1 118.6 . .
C2 C1 H1 118.6 . .
N2 C2 C3 111.1(5) . .
N2 C2 C1 119.2(5) . .
C3 C2 C1 129.6(5) . .
C4 C3 C2 106.2(5) . .
C4 C3 H3 126.9 . .
C2 C3 H3 126.9 . .
C3 C4 C5 107.7(5) . .
C3 C4 H4 126.2 . .
C5 C4 H4 126.2 . .
N2 C5 C4 110.3(5) . .
N2 C5 C6 124.4(5) . .
C4 C5 C6 125.2(5) . .
C11 C6 C5 114.3(5) . .
C11 C6 C7 108.3(5) . .
C5 C6 C7 106.1(5) . .
C11 C6 C9 110.5(5) . .
C5 C6 C9 108.6(5) . .
C7 C6 C9 108.9(5) . .
C8 C7 C6 117.4(7) . .
C8 C7 H7A 108.0 . .
C6 C7 H7A 108.0 . .
C8 C7 H7B 108.0 . .
C6 C7 H7B 108.0 . .
H7A C7 H7B 107.2 . .
C7 C8 H8A 109.5 . .
C7 C8 H8B 109.5 . .
H8A C8 H8B 109.5 . .
C7 C8 H8C 109.5 . .
H8A C8 H8C 109.5 . .
H8B C8 H8C 109.5 . .
C10 C9 C6 115.1(5) . .
C10 C9 H9A 108.5 . .
C6 C9 H9A 108.5 . .
C10 C9 H9B 108.5 . .
C6 C9 H9B 108.5 . .
H9A C9 H9B 107.5 . .
C9 C10 H10A 109.5 . .
C9 C10 H10B 109.5 . .
H10A C10 H10B 109.5 . .
C9 C10 H10C 109.5 . .
H10A C10 H10C 109.5 . .
H10B C10 H10C 109.5 . .
N3 C11 C12 109.9(5) . .
N3 C11 C6 121.8(5) . .
C12 C11 C6 127.2(5) . .
C13 C12 C11 107.9(5) . .
C13 C12 H12 126.1 . .
C11 C12 H12 126.1 . .
C12 C13 C14 107.0(5) . .
C12 C13 H13 126.5 . .
C14 C13 H13 126.5 . .
N3 C14 C13 110.3(5) . .
N3 C14 C15 122.0(5) . .
C13 C14 C15 127.5(5) . .
N4 C15 C14 124.9(5) . .
N4 C15 H15 117.6 . .
C14 C15 H15 117.6 . .
C17 C16 C21 120.0(5) . .
C17 C16 N4 120.1(5) . .
C21 C16 N4 119.9(5) . .
C16 C17 C18 121.1(6) . .
C16 C17 H17 119.5 . .
C18 C17 H17 119.5 . .
C19 C18 C17 120.9(6) . .
C19 C18 H18 119.5 . .
C17 C18 H18 119.5 . .
C18 C19 C20 120.8(5) . .
C18 C19 H19 119.6 . .
C20 C19 H19 119.6 . .
C23 C20 C19 122.2(5) . .
C23 C20 C21 118.8(5) . .
C19 C20 C21 118.9(5) . .
C22 C21 C20 118.6(5) . .
C22 C21 C16 123.1(5) . .
C20 C21 C16 118.2(5) . .
C28 C22 C21 122.0(5) . .
C28 C22 H22 119.0 . .
C21 C22 H22 119.0 . .
C20 C23 C27 123.8(5) . .
C20 C23 H23 118.1 . .
C27 C23 H23 118.1 . .
C29 C24 C25 120.9(6) . .
C29 C24 H24 119.5 . .
C25 C24 H24 119.5 . .
C26 C25 C24 120.4(5) 2_655 .
C26 C25 H25 119.8 2_655 .
C24 C25 H25 119.8 . .
C25 C26 C27 121.3(5) 2_655 .
C25 C26 H26 119.4 2_655 .
C27 C26 H26 119.4 . .
C23 C27 C26 123.4(5) . .
C23 C27 C28 117.1(5) . .
C26 C27 C28 119.4(5) . .
C22 C28 C29 124.1(5) . 2_655
C22 C28 C27 119.4(5) . .
C29 C28 C27 116.5(5) 2_655 .
C24 C29 N1 119.4(5) . .
C24 C29 C28 121.4(5) . 2_655
N1 C29 C28 119.2(5) . 2_655
O1 C30 C31 118.7(5) . .
O1 C30 C35 120.3(5) . .
C31 C30 C35 121.0(5) . .
C32 C31 C30 118.0(5) . .
C32 C31 C36 120.6(5) . .
C30 C31 C36 121.4(5) . .
C31 C32 C33 123.3(6) . .
C31 C32 H32 118.3 . .
C33 C32 H32 118.3 . .
C34 C33 C32 116.3(6) . .
C34 C33 C44 121.7(6) . .
C32 C33 C44 122.0(6) . .
C33 C34 C35 124.9(6) . .
C33 C34 H34 117.5 . .
C35 C34 H34 117.5 . .
C34 C35 C30 116.3(5) . .
C34 C35 C40 115.8(5) . .
C30 C35 C40 127.8(5) . .
C39 C36 C37 106.6(5) . .
C39 C36 C31 110.3(5) . .
C37 C36 C31 112.1(5) . .
C39 C36 C38 111.5(5) . .
C37 C36 C38 105.5(5) . .
C31 C36 C38 110.6(5) . .
C36 C37 H37A 109.5 . .
C36 C37 H37B 109.5 . .
H37A C37 H37B 109.5 . .
C36 C37 H37C 109.5 . .
H37A C37 H37C 109.5 . .
H37B C37 H37C 109.5 . .
C36 C38 H38A 109.5 . .
C36 C38 H38B 109.5 . .
H38A C38 H38B 109.5 . .
C36 C38 H38C 109.5 . .
H38A C38 H38C 109.5 . .
H38B C38 H38C 109.5 . .
C36 C39 H39A 109.5 . .
C36 C39 H39B 109.5 . .
H39A C39 H39B 109.5 . .
C36 C39 H39C 109.5 . .
H39A C39 H39C 109.5 . .
H39B C39 H39C 109.5 . .
C41 C40 C43 108.5(5) . .
C41 C40 C35 108.2(5) . .
C43 C40 C35 116.3(5) . .
C41 C40 C42 108.0(5) . .
C43 C40 C42 105.8(5) . .
C35 C40 C42 109.7(5) . .
C40 C41 H41A 109.5 . .
C40 C41 H41B 109.5 . .
H41A C41 H41B 109.5 . .
C40 C41 H41C 109.5 . .
H41A C41 H41C 109.5 . .
H41B C41 H41C 109.5 . .
C40 C42 H42A 109.5 . .
C40 C42 H42B 109.5 . .
H42A C42 H42B 109.5 . .
C40 C42 H42C 109.5 . .
H42A C42 H42C 109.5 . .
H42B C42 H42C 109.5 . .
C40 C43 H43A 109.5 . .
C40 C43 H43B 109.5 . .
H43A C43 H43B 109.5 . .
C40 C43 H43C 109.5 . .
H43A C43 H43C 109.5 . .
H43B C43 H43C 109.5 . .
C47 C44 C45 108.9(7) . .
C47 C44 C46 108.3(7) . .
C45 C44 C46 108.3(7) . .
C47 C44 C33 110.9(6) . .
C45 C44 C33 112.7(6) . .
C46 C44 C33 107.6(6) . .
C44 C45 H45A 109.5 . .
C44 C45 H45B 109.5 . .
H45A C45 H45B 109.5 . .
C44 C45 H45C 109.5 . .
H45A C45 H45C 109.5 . .
H45B C45 H45C 109.5 . .
C44 C46 H46A 109.5 . .
C44 C46 H46B 109.5 . .
H46A C46 H46B 109.5 . .
C44 C46 H46C 109.5 . .
H46A C46 H46C 109.5 . .
H46B C46 H46C 109.5 . .
C44 C47 H47A 109.5 . .
C44 C47 H47B 109.5 . .
H47A C47 H47B 109.5 . .
C44 C47 H47C 109.5 . .
H47A C47 H47C 109.5 . .
H47B C47 H47C 109.5 . .
C49 C48 C48 120.9(4) . 2
C49 C48 H48 119.5 . .
C48 C48 H48 119.5 2 .
C48 C49 C50 118.6(7) . .
C48 C49 H49 120.7 . .
C50 C49 H49 120.7 . .
C49 C50 C50 120.5(4) . 2
C49 C50 H50 119.8 . .
C50 C50 H50 119.8 2 .
C1 N1 C29 114.4(4) . .
C1 N1 U1 112.7(3) . .
C29 N1 U1 132.9(3) . .
C5 N2 C2 104.8(4) . .
C5 N2 U1 138.9(3) . .
C2 N2 U1 114.8(3) . .
C11 N3 C14 105.0(4) . .
C11 N3 U1 136.8(3) . .
C14 N3 U1 111.9(3) . .
C15 N4 C16 113.6(4) . .
C15 N4 U1 103.5(3) . .
C16 N4 U1 137.9(3) . .
C30 O1 U1 169.0(3) . .
S2 S1 S2 33.76(18) 2_655 .
S2 S1 U1 69.51(9) 2_655 .
S2 S1 U1 64.62(8) . .
S2 S1 U1 64.62(8) 2_655 2_655
S2 S1 U1 69.51(9) . 2_655
U1 S1 U1 131.98(7) . 2_655
S1 S2 U1 70.40(8) . .
S1 S2 U1 66.87(8) . 2_655
U1 S2 U1 134.95(11) . 2_655
O1 U1 N3 101.44(15) . .
O1 U1 N2 108.43(14) . .
N3 U1 N2 70.24(14) . .
O1 U1 N1 83.10(14) . .
N3 U1 N1 137.64(14) . .
N2 U1 N1 68.46(14) . .
O1 U1 S2 166.57(12) . .
N3 U1 S2 83.25(13) . .
N2 U1 S2 84.99(12) . .
N1 U1 S2 102.03(12) . .
O1 U1 N4 84.87(13) . .
N3 U1 N4 68.40(14) . .
N2 U1 N4 138.31(13) . .
N1 U1 N4 153.18(14) . .
S2 U1 N4 85.21(12) . .
O1 U1 S1 125.70(10) . .
N3 U1 S1 125.71(11) . .
N2 U1 S1 111.54(11) . .
N1 U1 S1 79.08(10) . .
S2 U1 S1 44.98(7) . .
N4 U1 S1 88.76(9) . .
O1 U1 S2 159.34(12) . 2_655
N3 U1 S2 97.61(13) . 2_655
N2 U1 S2 70.72(12) . 2_655
N1 U1 S2 77.44(12) . 2_655
S2 U1 S2 25.22(13) . 2_655
N4 U1 S2 109.76(11) . 2_655
S1 U1 S2 43.63(6) . 2_655
loop_
_geom_bond_atom_site_label_1
_geom_bond_atom_site_label_2
_geom_bond_distance
_geom_bond_site_symmetry_2
C1 N1 1.311(7) .
C1 C2 1.403(7) .
C1 H1 0.9500 .
C2 N2 1.392(7) .
C2 C3 1.381(8) .
C3 C4 1.369(8) .
C3 H3 0.9500 .
C4 C5 1.399(8) .
C4 H4 0.9500 .
C5 N2 1.360(7) .
C5 C6 1.508(7) .
C6 C11 1.498(8) .
C6 C7 1.557(9) .
C6 C9 1.555(8) .
C7 C8 1.509(10) .
C7 H7A 0.9900 .
C7 H7B 0.9900 .
C8 H8A 0.9800 .
C8 H8B 0.9800 .
C8 H8C 0.9800 .
C9 C10 1.520(9) .
C9 H9A 0.9900 .
C9 H9B 0.9900 .
C10 H10A 0.9800 .
C10 H10B 0.9800 .
C10 H10C 0.9800 .
C11 N3 1.386(7) .
C11 C12 1.394(8) .
C12 C13 1.367(8) .
C12 H12 0.9500 .
C13 C14 1.394(8) .
C13 H13 0.9500 .
C14 N3 1.391(7) .
C14 C15 1.401(8) .
C15 N4 1.315(7) .
C15 H15 0.9500 .
C16 C17 1.364(8) .
C16 C21 1.437(8) .
C16 N4 1.444(7) .
C17 C18 1.403(8) .
C17 H17 0.9500 .
C18 C19 1.348(9) .
C18 H18 0.9500 .
C19 C20 1.421(8) .
C19 H19 0.9500 .
C20 C23 1.374(8) .
C20 C21 1.434(7) .
C21 C22 1.400(7) .
C22 C28 1.386(7) .
C22 H22 0.9500 .
C23 C27 1.393(8) .
C23 H23 0.9500 .
C24 C29 1.356(8) .
C24 C25 1.418(8) .
C24 H24 0.9500 .
C25 C26 1.352(9) 2_655
C25 H25 0.9500 .
C26 C25 1.352(9) 2_655
C26 C27 1.421(8) .
C26 H26 0.9500 .
C27 C28 1.454(7) .
C28 C29 1.450(8) 2_655
C29 N1 1.425(6) .
C29 C28 1.450(8) 2_655
C30 O1 1.369(6) .
C30 C31 1.410(8) .
C30 C35 1.418(7) .
C31 C32 1.379(8) .
C31 C36 1.544(7) .
C32 C33 1.389(8) .
C32 H32 0.9500 .
C33 C34 1.381(9) .
C33 C44 1.545(9) .
C34 C35 1.383(8) .
C34 H34 0.9500 .
C35 C40 1.548(8) .
C36 C39 1.520(8) .
C36 C37 1.532(8) .
C36 C38 1.543(8) .
C37 H37A 0.9800 .
C37 H37B 0.9800 .
C37 H37C 0.9800 .
C38 H38A 0.9800 .
C38 H38B 0.9800 .
C38 H38C 0.9800 .
C39 H39A 0.9800 .
C39 H39B 0.9800 .
C39 H39C 0.9800 .
C40 C41 1.532(8) .
C40 C43 1.534(8) .
C40 C42 1.544(8) .
C41 H41A 0.9800 .
C41 H41B 0.9800 .
C41 H41C 0.9800 .
C42 H42A 0.9800 .
C42 H42B 0.9800 .
C42 H42C 0.9800 .
C43 H43A 0.9800 .
C43 H43B 0.9800 .
C43 H43C 0.9800 .
C44 C47 1.514(11) .
C44 C45 1.522(10) .
C44 C46 1.555(12) .
C45 H45A 0.9800 .
C45 H45B 0.9800 .
C45 H45C 0.9800 .
C46 H46A 0.9800 .
C46 H46B 0.9800 .
C46 H46C 0.9800 .
C47 H47A 0.9800 .
C47 H47B 0.9800 .
C47 H47C 0.9800 .
C48 C49 1.362(9) .
C48 C48 1.3749(10) 2
C48 H48 0.9500 .
C49 C50 1.370(9) .
C49 H49 0.9500 .
C50 C50 1.387(12) 2
C50 H50 0.9500 .
N1 U1 2.535(4) .
N2 U1 2.433(4) .
N3 U1 2.391(4) .
N4 U1 2.729(4) .
O1 U1 2.092(4) .
S1 S2 2.118(3) 2_655
S1 S2 2.118(3) .
S1 U1 2.8229(8) .
S1 U1 2.8229(8) 2_655
S2 U1 2.707(3) .
S2 U1 2.875(3) 2_655
U1 S2 2.875(3) 2_655
loop_
_geom_torsion_atom_site_label_1
_geom_torsion_atom_site_label_2
_geom_torsion_atom_site_label_3
_geom_torsion_atom_site_label_4
_geom_torsion
_geom_torsion_site_symmetry_1
_geom_torsion_site_symmetry_4
N1 C1 C2 N2 2.9(8) . .
N1 C1 C2 C3 179.6(6) . .
N2 C2 C3 C4 -0.8(7) . .
C1 C2 C3 C4 -177.7(6) . .
C2 C3 C4 C5 0.5(7) . .
C3 C4 C5 N2 0.0(7) . .
C3 C4 C5 C6 -177.3(5) . .
N2 C5 C6 C11 17.3(8) . .
C4 C5 C6 C11 -165.8(5) . .
N2 C5 C6 C7 -102.0(6) . .
C4 C5 C6 C7 74.9(7) . .
N2 C5 C6 C9 141.1(5) . .
C4 C5 C6 C9 -41.9(8) . .
C11 C6 C7 C8 57.3(7) . .
C5 C6 C7 C8 -179.5(6) . .
C9 C6 C7 C8 -62.8(7) . .
C11 C6 C9 C10 65.5(7) . .
C5 C6 C9 C10 -60.6(7) . .
C7 C6 C9 C10 -175.7(6) . .
C5 C6 C11 N3 -42.1(7) . .
C7 C6 C11 N3 75.9(7) . .
C9 C6 C11 N3 -164.9(5) . .
C5 C6 C11 C12 151.3(6) . .
C7 C6 C11 C12 -90.6(7) . .
C9 C6 C11 C12 28.5(8) . .
N3 C11 C12 C13 0.4(7) . .
C6 C11 C12 C13 168.3(6) . .
C11 C12 C13 C14 -0.6(7) . .
C12 C13 C14 N3 0.6(7) . .
C12 C13 C14 C15 -174.0(6) . .
N3 C14 C15 N4 4.0(9) . .
C13 C14 C15 N4 178.1(6) . .
C21 C16 C17 C18 -1.0(9) . .
N4 C16 C17 C18 179.1(5) . .
C16 C17 C18 C19 2.5(9) . .
C17 C18 C19 C20 -1.8(10) . .
C18 C19 C20 C23 -179.1(6) . .
C18 C19 C20 C21 -0.4(9) . .
C23 C20 C21 C22 4.0(8) . .
C19 C20 C21 C22 -174.8(5) . .
C23 C20 C21 C16 -179.5(5) . .
C19 C20 C21 C16 1.8(8) . .
C17 C16 C21 C22 175.3(5) . .
N4 C16 C21 C22 -4.8(8) . .
C17 C16 C21 C20 -1.1(8) . .
N4 C16 C21 C20 178.8(5) . .
C20 C21 C22 C28 -3.7(8) . .
C16 C21 C22 C28 179.9(5) . .
C19 C20 C23 C27 177.4(6) . .
C21 C20 C23 C27 -1.3(9) . .
C29 C24 C25 C26 -0.5(9) . 2_655
C20 C23 C27 C26 179.9(6) . .
C20 C23 C27 C28 -1.7(9) . .
C25 C26 C27 C23 178.8(6) 2_655 .
C25 C26 C27 C28 0.4(9) 2_655 .
C21 C22 C28 C29 179.4(5) . 2_655
C21 C22 C28 C27 0.7(8) . .
C23 C27 C28 C22 2.1(8) . .
C26 C27 C28 C22 -179.5(5) . .
C23 C27 C28 C29 -176.7(5) . 2_655
C26 C27 C28 C29 1.7(8) . 2_655
C25 C24 C29 N1 -175.5(5) . .
C25 C24 C29 C28 2.8(9) . 2_655
O1 C30 C31 C32 176.5(5) . .
C35 C30 C31 C32 -3.4(8) . .
O1 C30 C31 C36 -2.9(7) . .
C35 C30 C31 C36 177.1(5) . .
C30 C31 C32 C33 1.3(9) . .
C36 C31 C32 C33 -179.2(6) . .
C31 C32 C33 C34 0.9(10) . .
C31 C32 C33 C44 -177.0(6) . .
C32 C33 C34 C35 -1.1(10) . .
C44 C33 C34 C35 176.9(6) . .
C33 C34 C35 C30 -0.9(9) . .
C33 C34 C35 C40 179.7(6) . .
O1 C30 C35 C34 -176.7(5) . .
C31 C30 C35 C34 3.2(8) . .
O1 C30 C35 C40 2.5(8) . .
C31 C30 C35 C40 -177.5(5) . .
C32 C31 C36 C39 120.8(6) . .
C30 C31 C36 C39 -59.7(7) . .
C32 C31 C36 C37 2.1(8) . .
C30 C31 C36 C37 -178.4(5) . .
C32 C31 C36 C38 -115.3(6) . .
C30 C31 C36 C38 64.1(7) . .
C34 C35 C40 C41 65.0(6) . .
C30 C35 C40 C41 -114.3(6) . .
C34 C35 C40 C43 -172.6(5) . .
C30 C35 C40 C43 8.1(8) . .
C34 C35 C40 C42 -52.6(7) . .
C30 C35 C40 C42 128.1(6) . .
C34 C33 C44 C47 45.7(10) . .
C32 C33 C44 C47 -136.4(7) . .
C34 C33 C44 C45 168.1(7) . .
C32 C33 C44 C45 -14.0(10) . .
C34 C33 C44 C46 -72.5(9) . .
C32 C33 C44 C46 105.4(8) . .
C48 C48 C49 C50 2.8(12) 2 .
C48 C49 C50 C50 -1.0(11) . 2
C2 C1 N1 C29 -173.5(5) . .
C2 C1 N1 U1 8.4(7) . .
C24 C29 N1 C1 103.3(6) . .
C28 C29 N1 C1 -75.0(6) 2_655 .
C24 C29 N1 U1 -79.2(6) . .
C28 C29 N1 U1 102.5(5) 2_655 .
C4 C5 N2 C2 -0.5(6) . .
C6 C5 N2 C2 176.8(5) . .
C4 C5 N2 U1 -164.8(4) . .
C6 C5 N2 U1 12.5(9) . .
C3 C2 N2 C5 0.8(6) . .
C1 C2 N2 C5 178.0(5) . .
C3 C2 N2 U1 169.5(4) . .
C1 C2 N2 U1 -13.3(6) . .
C12 C11 N3 C14 -0.1(6) . .
C6 C11 N3 C14 -168.7(5) . .
C12 C11 N3 U1 -148.3(5) . .
C6 C11 N3 U1 43.0(8) . .
C13 C14 N3 C11 -0.3(6) . .
C15 C14 N3 C11 174.6(5) . .
C13 C14 N3 U1 156.8(4) . .
C15 C14 N3 U1 -28.2(7) . .
C14 C15 N4 C16 178.0(5) . .
C14 C15 N4 U1 18.4(7) . .
C17 C16 N4 C15 -42.7(7) . .
C21 C16 N4 C15 137.4(5) . .
C17 C16 N4 U1 106.9(6) . .
C21 C16 N4 U1 -72.9(7) . .
C31 C30 O1 U1 121.8(16) . .
C35 C30 O1 U1 -58.3(19) . .
loop_
_platon_squeeze_void_nr
_platon_squeeze_void_average_x
_platon_squeeze_void_average_y
_platon_squeeze_void_average_z
_platon_squeeze_void_volume
_platon_squeeze_void_count_electrons
_platon_squeeze_void_content
1 1.000 0.287 0.250 213 29 ' '
2 0.500 0.787 0.250 213 29 ' '
3 0.488 0.185 0.178 7 0 ' '
4 0.988 0.685 0.178 7 0 ' '
5 0.512 0.185 0.322 7 0 ' '
6 0.012 0.685 0.322 7 0 ' '
7 0.500 0.213 0.750 213 29 ' '
8 1.000 0.713 0.750 213 29 ' '
9 0.988 0.315 0.678 7 0 ' '
10 0.488 0.815 0.678 7 0 ' '
11 0.012 0.315 0.822 7 0 ' '
12 0.512 0.815 0.822 7 0 ' '
