#------------------------------------------------------------------------------
#$Date: 2017-07-25 06:44:03 +0300 (Tue, 25 Jul 2017) $
#$Revision: 199008 $
#$URL: file:///home/coder/svn-repositories/cod/cif/1/54/66/1546621.cif $
#------------------------------------------------------------------------------
#
# This file is available in the Crystallography Open Database (COD),
# http://www.crystallography.net/
#
# All data on this site have been placed in the public domain by the
# contributors.
#
data_1546621
loop_
_publ_author_name
'Zhou, Hui'
'Chaminda Lakmal, Hetti Handi'
'Baine, Jonathan'
'Valle, Henry'
'Xu, Xue'
'Cui, Xin'
_publ_section_title
;
 Catalytic [2+2+2] Cycloaddition with Indium(III)-Activated Formaldimines:
 A Practical and Selective Access to Hexahydropyrimidines and 1,3-Diamines
 from Alkenes
;
_journal_name_full               'Chem. Sci.'
_journal_paper_doi               10.1039/C7SC02576A
_journal_year                    2017
_chemical_formula_moiety         'C25 H25 Cl N2 O4 S2'
_chemical_formula_sum            'C25 H25 Cl N2 O4 S2'
_chemical_formula_weight         517.04
_chemical_name_systematic        MSU0049
_space_group_crystal_system      monoclinic
_space_group_IT_number           15
_space_group_name_Hall           '-C 2yc'
_space_group_name_H-M_alt        'C 1 2/c 1'
_symmetry_space_group_name_Hall  '-C 2yc'
_symmetry_space_group_name_H-M   'C 1 2/c 1'
_atom_sites_solution_hydrogens   geom
_atom_sites_solution_primary     dual
_audit_creation_date             2017-04-04
_audit_creation_method
;
Olex2 1.2
(compiled 2017.03.28 svn.r3405 for OlexSys, GUI svn.r5335)
;
_audit_update_record
;
2017-06-06 deposited with the CCDC.
2017-07-21 downloaded from the CCDC.
;
_cell_angle_alpha                90
_cell_angle_beta                 95.035(4)
_cell_angle_gamma                90
_cell_formula_units_Z            8
_cell_length_a                   43.257(3)
_cell_length_b                   7.7831(5)
_cell_length_c                   14.4728(9)
_cell_measurement_reflns_used    9846
_cell_measurement_temperature    100
_cell_measurement_theta_max      26.081
_cell_measurement_theta_min      2.825
_cell_volume                     4853.8(6)
_computing_cell_refinement       'SAINT v8.37A (Bruker, 2015)'
_computing_data_reduction        'SAINT v8.37A (Bruker, 2015)'
_computing_molecular_graphics    'Olex2 (Dolomanov et al., 2009)'
_computing_publication_material  'Olex2 (Dolomanov et al., 2009)'
_computing_structure_refinement  'ShelXL (Sheldrick, 2015)'
_computing_structure_solution    'ShelXT (Sheldrick, 2015)'
_diffrn_ambient_temperature      100
_diffrn_measured_fraction_theta_full 1.000
_diffrn_measured_fraction_theta_max 0.996
_diffrn_measurement_device_type  'Bruker D8 VENTURE PHOTON 100 CMOS'
_diffrn_measurement_method       '\f and \w scans'
_diffrn_radiation_type           MoK\a
_diffrn_radiation_wavelength     0.71073
_diffrn_reflns_av_R_equivalents  0.0379
_diffrn_reflns_av_unetI/netI     0.0170
_diffrn_reflns_Laue_measured_fraction_full 1.000
_diffrn_reflns_Laue_measured_fraction_max 0.996
_diffrn_reflns_limit_h_max       53
_diffrn_reflns_limit_h_min       -53
_diffrn_reflns_limit_k_max       9
_diffrn_reflns_limit_k_min       -9
_diffrn_reflns_limit_l_max       17
_diffrn_reflns_limit_l_min       -17
_diffrn_reflns_number            55153
_diffrn_reflns_point_group_measured_fraction_full 1.000
_diffrn_reflns_point_group_measured_fraction_max 0.996
_diffrn_reflns_theta_full        25.242
_diffrn_reflns_theta_max         26.135
_diffrn_reflns_theta_min         2.659
_diffrn_standards_number         0
_exptl_absorpt_coefficient_mu    0.365
_exptl_absorpt_correction_T_max  1.0000
_exptl_absorpt_correction_T_min  0.8696
_exptl_absorpt_correction_type   numerical
_exptl_absorpt_process_details
'SADABS-2014/5 (Bruker,2014/5) was used for absorption correction. wR2(int) was 0.1581 before and 0.0460 after correction. The Ratio of minimum to maximum transmission is 0.8696. The \l/2 correction factor is Not present.'
_exptl_crystal_colour            'clear light colourless'
_exptl_crystal_colour_lustre     clear
_exptl_crystal_colour_modifier   light
_exptl_crystal_colour_primary    colourless
_exptl_crystal_density_diffrn    1.415
_exptl_crystal_description       plate
_exptl_crystal_F_000             2160
_exptl_crystal_size_max          0.445
_exptl_crystal_size_mid          0.328
_exptl_crystal_size_min          0.06
_refine_diff_density_max         0.681
_refine_diff_density_min         -0.452
_refine_diff_density_rms         0.057
_refine_ls_extinction_method     none
_refine_ls_goodness_of_fit_ref   1.052
_refine_ls_hydrogen_treatment    constr
_refine_ls_matrix_type           full
_refine_ls_number_parameters     309
_refine_ls_number_reflns         4815
_refine_ls_number_restraints     0
_refine_ls_restrained_S_all      1.052
_refine_ls_R_factor_all          0.0439
_refine_ls_R_factor_gt           0.0376
_refine_ls_shift/su_max          0.001
_refine_ls_shift/su_mean         0.000
_refine_ls_structure_factor_coef Fsqd
_refine_ls_weighting_details
'w=1/[\s^2^(Fo^2^)+(0.0458P)^2^+9.8584P] where P=(Fo^2^+2Fc^2^)/3'
_refine_ls_weighting_scheme      calc
_refine_ls_wR_factor_gt          0.0957
_refine_ls_wR_factor_ref         0.0995
_reflns_Friedel_coverage         0.000
_reflns_number_gt                4290
_reflns_number_total             4815
_reflns_threshold_expression     'I > 2\s(I)'
_iucr_refine_instructions_details
;

    msu0049.res created by SHELXL-2014/7

TITL msu0049_a.res in C2/c
REM Old TITL MSU0049 in C2/c
REM SHELXT solution in C2/c
REM R1 0.137, Rweak 0.006, Alpha 0.029, Orientation as input
REM Formula found by SHELXT: C25 N2 O1 Cl3
CELL 0.71073 43.2569 7.7831 14.4728 90 95.035 90
ZERR 8 0.0028 0.0005 0.0009 0 0.004 0
LATT 7
SYMM -X,+Y,0.5-Z
SFAC C H Cl N O S
UNIT 200 200 8 16 32 16
 
L.S. 25
PLAN  20 0 0
SIZE 0.06 0.328 0.445
TEMP -173.15
BOND $H
list 4
fmap 2
acta
REM <olex2.extras>
REM <HklSrc "%.\\MSU0049.hkl">
REM </olex2.extras>
 
WGHT    0.045800    9.858400
FVAR       0.14262
CL1   3    0.257101   -0.087706    0.607327    11.00000    0.03735    0.04072 =
         0.05959    0.00822   -0.00371   -0.02173
S1    6    0.429130    0.930896    0.651534    11.00000    0.02158    0.01646 =
         0.02243   -0.00580    0.00641   -0.00209
S2    6    0.393120    0.532171    0.867785    11.00000    0.02085    0.01826 =
         0.01501    0.00064    0.00019   -0.00265
O1    5    0.445433    0.988785    0.736324    11.00000    0.03522    0.03004 =
         0.02479   -0.01263    0.00798   -0.01182
O2    5    0.406989    1.039639    0.601215    11.00000    0.02601    0.01618 =
         0.04062   -0.00101    0.00985    0.00399
O3    5    0.417881    0.596521    0.930365    11.00000    0.02589    0.03160 =
         0.01922   -0.00068   -0.00324   -0.00584
O4    5    0.378129    0.373686    0.886832    11.00000    0.02877    0.01915 =
         0.02142    0.00374    0.00076   -0.00395
N1    4    0.409918    0.756732    0.678017    11.00000    0.01824    0.01764 =
         0.01661   -0.00297    0.00382   -0.00194
N2    4    0.408145    0.500829    0.768775    11.00000    0.01828    0.01875 =
         0.01813   -0.00256    0.00114   -0.00138
C1    1    0.428326    0.631420    0.735946    11.00000    0.01574    0.02288 =
         0.02020   -0.00162    0.00222   -0.00187
AFIX  23
H1A   2    0.443948    0.577217    0.699224    11.00000   -1.20000
H1B   2    0.439436    0.690885    0.789480    11.00000   -1.20000
AFIX   0
C2    1    0.392424    0.674060    0.597447    11.00000    0.01985    0.02297 =
         0.01671   -0.00265    0.00132   -0.00369
AFIX  23
H2A   2    0.407189    0.631465    0.554184    11.00000   -1.20000
H2B   2    0.378811    0.760303    0.564120    11.00000   -1.20000
AFIX   0
C3    1    0.373045    0.527287    0.626532    11.00000    0.02172    0.01874 =
         0.01595   -0.00546    0.00466   -0.00130
C4    1    0.389920    0.405926    0.694050    11.00000    0.02247    0.01730 =
         0.01960   -0.00528    0.00152   -0.00247
AFIX  23
H4A   2    0.374735    0.330476    0.721511    11.00000   -1.20000
H4B   2    0.403990    0.332366    0.660872    11.00000   -1.20000
AFIX   0
C5    1    0.344193    0.507074    0.587440    11.00000    0.02331    0.02188 =
         0.02001    0.00014    0.00208   -0.00304
AFIX  43
H5    2    0.336063    0.598826    0.549417    11.00000   -1.20000
AFIX   0
C6    1    0.323453    0.358809    0.596404    11.00000    0.02092    0.02757 =
         0.01869   -0.00138    0.00070   -0.00468
C7    1    0.291636    0.386320    0.596103    11.00000    0.02236    0.02934 =
         0.03753    0.00387   -0.00089   -0.00035
AFIX  43
H7    2    0.283750    0.500288    0.593002    11.00000   -1.20000
AFIX   0
C8    1    0.271342    0.249270    0.600277    11.00000    0.01856    0.04041 =
         0.04347    0.00255    0.00168   -0.00567
AFIX  43
H8    2    0.249678    0.269090    0.600492    11.00000   -1.20000
AFIX   0
C9    1    0.282809    0.084394    0.604104    11.00000    0.02669    0.03409 =
         0.03261    0.00194    0.00035   -0.01460
C10   1    0.314115    0.052335    0.604079    11.00000    0.03126    0.02482 =
         0.03122   -0.00277    0.00093   -0.00450
AFIX  43
H10   2    0.321764   -0.062131    0.606986    11.00000   -1.20000
AFIX   0
C11   1    0.334228    0.189631    0.599751    11.00000    0.02248    0.02707 =
         0.02761   -0.00667    0.00233   -0.00373
AFIX  43
H11   2    0.355833    0.168392    0.599040    11.00000   -1.20000
AFIX   0
C12   1    0.456272    0.866210    0.575178    11.00000    0.01860    0.01503 =
         0.02029   -0.00055    0.00503   -0.00206
C13   1    0.486907    0.835928    0.607966    11.00000    0.02181    0.02930 =
         0.01864    0.00123   -0.00207   -0.00289
AFIX  43
H13   2    0.493669    0.857209    0.671160    11.00000   -1.20000
AFIX   0
C14   1    0.507475    0.774681    0.548104    11.00000    0.01787    0.03023 =
         0.02824    0.00672    0.00144    0.00320
AFIX  43
H14   2    0.528478    0.754815    0.570479    11.00000   -1.20000
AFIX   0
C15   1    0.497978    0.741721    0.455914    11.00000    0.02446    0.01632 =
         0.02574    0.00413    0.00942   -0.00049
C16   1    0.467398    0.775644    0.423421    11.00000    0.02623    0.02351 =
         0.01755    0.00129    0.00405   -0.00478
AFIX  43
H16   2    0.460735    0.755265    0.360070    11.00000   -1.20000
AFIX   0
C17   1    0.446562    0.838677    0.482168    11.00000    0.01757    0.02090 =
         0.02026    0.00372   -0.00045   -0.00027
AFIX  43
H17   2    0.425773    0.863007    0.459209    11.00000   -1.20000
AFIX   0
C18   1    0.364247    0.691591    0.855870    11.00000    0.02465    0.01987 =
         0.01480    0.00008    0.00553   -0.00103
C19   1    0.333988    0.647754    0.825848    11.00000    0.02433    0.02538 =
         0.02775   -0.00388    0.00414   -0.00049
AFIX  43
H19   2    0.328815    0.532334    0.809698    11.00000   -1.20000
AFIX   0
C20   1    0.311462    0.773565    0.819674    11.00000    0.02676    0.03935 =
         0.03249   -0.00263    0.00534    0.00606
AFIX  43
H20   2    0.290746    0.744141    0.798294    11.00000   -1.20000
AFIX   0
C21   1    0.318511    0.942585    0.844152    11.00000    0.04244    0.03074 =
         0.02687    0.00467    0.01369    0.01275
C22   1    0.349123    0.983634    0.872344    11.00000    0.05464    0.01832 =
         0.03683   -0.00195    0.01695    0.00089
AFIX  43
H22   2    0.354389    1.099169    0.887956    11.00000   -1.20000
AFIX   0
C23   1    0.372039    0.859909    0.878123    11.00000    0.03210    0.02203 =
         0.03249   -0.00346    0.00808   -0.00562
AFIX  43
H23   2    0.392920    0.889892    0.897151    11.00000   -1.20000
AFIX   0
C24   1    0.520400    0.670613    0.392052    11.00000    0.03366    0.02981 =
         0.03870   -0.00058    0.01921    0.00145
AFIX 137
H24A  2    0.514352    0.553014    0.374300    11.00000   -1.50000
H24B  2    0.541357    0.670018    0.423845    11.00000   -1.50000
H24C  2    0.520110    0.742440    0.336367    11.00000   -1.50000
AFIX   0
C25   1    0.293663    1.078500    0.843163    11.00000    0.06323    0.04103 =
         0.04343    0.00384    0.01590    0.02729
AFIX 137
H25A  2    0.274924    1.037722    0.806764    11.00000   -1.50000
H25B  2    0.301044    1.183860    0.815235    11.00000   -1.50000
H25C  2    0.288867    1.102290    0.906847    11.00000   -1.50000
AFIX   0
HKLF 4
 
REM  msu0049_a.res in C2/c
REM R1 =  0.0376 for    4290 Fo > 4sig(Fo)  and  0.0439 for all    4815 data
REM    309 parameters refined using      0 restraints
 
END  
     
WGHT      0.0464      9.6951 

REM Highest difference peak  0.681,  deepest hole -0.452,  1-sigma level  0.057
Q1    1   0.2487 -0.0150  0.6617  11.00000  0.05    0.68
Q2    1   0.4189  0.8396  0.6674  11.00000  0.05    0.46
Q3    1   0.3710  0.4905  0.8433  11.00000  0.05    0.36
Q4    1   0.3769  0.6170  0.8551  11.00000  0.05    0.32
Q5    1   0.4701  0.8523  0.5895  11.00000  0.05    0.31
Q6    1   0.4816  0.7467  0.4490  11.00000  0.05    0.30
Q7    1   0.2787 -0.1252  0.5801  11.00000  0.05    0.29
Q8    1   0.3789  0.4674  0.6608  11.00000  0.05    0.28
Q9    1   0.4176  0.7080  0.7052  11.00000  0.05    0.28
Q10   1   0.5002  0.7417  0.5029  11.00000  0.05    0.28
Q11   1   0.3997  0.7209  0.6429  11.00000  0.05    0.27
Q12   1   0.3277  0.6184  0.5099  11.00000  0.05    0.26
Q13   1   0.4522  0.8401  0.5315  11.00000  0.05    0.26
Q14   1   0.4459  0.9000  0.6041  11.00000  0.05    0.26
Q15   1   0.4007  0.5175  0.8118  11.00000  0.05    0.26
Q16   1   0.3993  0.4419  0.7322  11.00000  0.05    0.25
Q17   1   0.4102  0.9421  0.6322  11.00000  0.05    0.25
Q18   1   0.3085  1.1687  0.8870  11.00000  0.05    0.25
Q19   1   0.2782  0.1685  0.6415  11.00000  0.05    0.25
Q20   1   0.4964  0.8176  0.5680  11.00000  0.05    0.24

  REM The information below was added by Olex2.
  REM
  REM R1 = 0.0376 for 4290 Fo > 4sig(Fo) and 0.0439 for all 57516 data
  REM n/a parameters refined using n/a restraints
  REM Highest difference peak 0.68, deepest hole -0.45
  REM Mean Shift 0, Max Shift 0.001.

  REM +++ Tabular Listing of Refinement Information +++
  REM R1_all = 0.0439
  REM R1_gt = 0.0376
  REM wR_ref = 0.0995
  REM GOOF = 1.052
  REM Shift_max = 0.001
  REM Shift_mean = 0
  REM Reflections_all = 57516
  REM Reflections_gt = 4290
  REM Parameters = n/a
  REM Hole = -0.45
  REM Peak = 0.68
  REM Flack = n/a

  
;
_cod_data_source_file            c7sc02576a2.cif
_cod_data_source_block           msu0049
_cod_original_cell_volume        4853.8(5)
_cod_database_code               1546621
_shelx_shelxl_version_number     2014/7
_shelx_space_group_comment
;
The symmetry employed for this shelxl refinement is uniquely defined
by the following loop, which should always be used as a source of
symmetry information in preference to the above space-group names.
They are only intended as comments.
;
_shelx_estimated_absorpt_t_max   0.978
_shelx_estimated_absorpt_t_min   0.854
_olex2_refinement_description
;
1. Fixed Uiso
 At 1.2 times of:
  All C(H) groups, All C(H,H) groups
 At 1.5 times of:
  All C(H,H,H) groups
2.a Secondary CH2 refined with riding coordinates:
 C1(H1A,H1B), C2(H2A,H2B), C4(H4A,H4B)
2.b Aromatic/amide H refined with riding coordinates:
 C5(H5), C7(H7), C8(H8), C10(H10), C11(H11), C13(H13), C14(H14), C16(H16),
 C17(H17), C19(H19), C20(H20), C22(H22), C23(H23)
2.c Idealised Me refined as rotating group:
 C24(H24A,H24B,H24C), C25(H25A,H25B,H25C)
;
_olex2_submission_original_sample_id MSU0049
_olex2_submission_special_instructions 'No special instructions were received'
loop_
_space_group_symop_operation_xyz
'x, y, z'
'-x, y, -z+1/2'
'x+1/2, y+1/2, z'
'-x+1/2, y+1/2, -z+1/2'
'-x, -y, -z'
'x, -y, z-1/2'
'-x+1/2, -y+1/2, -z'
'x+1/2, -y+1/2, z-1/2'
loop_
_atom_site_label
_atom_site_type_symbol
_atom_site_fract_x
_atom_site_fract_y
_atom_site_fract_z
_atom_site_U_iso_or_equiv
_atom_site_adp_type
_atom_site_occupancy
_atom_site_site_symmetry_order
_atom_site_calc_flag
_atom_site_refinement_flags_posn
Cl1 Cl 0.25710(2) -0.08771(8) 0.60733(5) 0.04636(18) Uani 1 1 d .
S1 S 0.42913(2) 0.93090(6) 0.65153(3) 0.01990(12) Uani 1 1 d .
S2 S 0.39312(2) 0.53217(6) 0.86778(3) 0.01812(12) Uani 1 1 d .
O1 O 0.44543(3) 0.98878(19) 0.73632(10) 0.0297(3) Uani 1 1 d .
O2 O 0.40699(3) 1.03964(17) 0.60121(11) 0.0272(3) Uani 1 1 d .
O3 O 0.41788(3) 0.59652(19) 0.93037(9) 0.0259(3) Uani 1 1 d .
O4 O 0.37813(3) 0.37369(17) 0.88683(9) 0.0232(3) Uani 1 1 d .
N1 N 0.40992(3) 0.7567(2) 0.67802(10) 0.0174(3) Uani 1 1 d .
N2 N 0.40815(3) 0.5008(2) 0.76878(10) 0.0184(3) Uani 1 1 d .
C1 C 0.42833(4) 0.6314(2) 0.73595(13) 0.0196(4) Uani 1 1 d .
H1A H 0.4439 0.5772 0.6992 0.023 Uiso 1 1 calc R
H1B H 0.4394 0.6909 0.7895 0.023 Uiso 1 1 calc R
C2 C 0.39242(4) 0.6741(2) 0.59745(12) 0.0199(4) Uani 1 1 d .
H2A H 0.4072 0.6315 0.5542 0.024 Uiso 1 1 calc R
H2B H 0.3788 0.7603 0.5641 0.024 Uiso 1 1 calc R
C3 C 0.37304(4) 0.5273(2) 0.62653(12) 0.0186(4) Uani 1 1 d .
C4 C 0.38992(4) 0.4059(2) 0.69405(13) 0.0198(4) Uani 1 1 d .
H4A H 0.3747 0.3305 0.7215 0.024 Uiso 1 1 calc R
H4B H 0.4040 0.3324 0.6609 0.024 Uiso 1 1 calc R
C5 C 0.34419(4) 0.5071(3) 0.58744(13) 0.0217(4) Uani 1 1 d .
H5 H 0.3361 0.5988 0.5494 0.026 Uiso 1 1 calc R
C6 C 0.32345(4) 0.3588(3) 0.59640(13) 0.0225(4) Uani 1 1 d .
C7 C 0.29164(5) 0.3863(3) 0.59610(15) 0.0300(5) Uani 1 1 d .
H7 H 0.2837 0.5003 0.5930 0.036 Uiso 1 1 calc R
C8 C 0.27134(5) 0.2493(3) 0.60028(16) 0.0342(5) Uani 1 1 d .
H8 H 0.2497 0.2691 0.6005 0.041 Uiso 1 1 calc R
C9 C 0.28281(5) 0.0844(3) 0.60410(15) 0.0313(5) Uani 1 1 d .
C10 C 0.31412(5) 0.0523(3) 0.60408(15) 0.0292(5) Uani 1 1 d .
H10 H 0.3218 -0.0621 0.6070 0.035 Uiso 1 1 calc R
C11 C 0.33423(5) 0.1896(3) 0.59975(14) 0.0257(4) Uani 1 1 d .
H11 H 0.3558 0.1684 0.5990 0.031 Uiso 1 1 calc R
C12 C 0.45627(4) 0.8662(2) 0.57518(12) 0.0178(4) Uani 1 1 d .
C13 C 0.48691(4) 0.8359(3) 0.60797(13) 0.0235(4) Uani 1 1 d .
H13 H 0.4937 0.8572 0.6712 0.028 Uiso 1 1 calc R
C14 C 0.50748(4) 0.7747(3) 0.54810(14) 0.0255(4) Uani 1 1 d .
H14 H 0.5285 0.7548 0.5705 0.031 Uiso 1 1 calc R
C15 C 0.49798(4) 0.7417(2) 0.45591(13) 0.0217(4) Uani 1 1 d .
C16 C 0.46740(4) 0.7756(3) 0.42342(13) 0.0223(4) Uani 1 1 d .
H16 H 0.4607 0.7553 0.3601 0.027 Uiso 1 1 calc R
C17 C 0.44656(4) 0.8387(2) 0.48217(13) 0.0197(4) Uani 1 1 d .
H17 H 0.4258 0.8630 0.4592 0.024 Uiso 1 1 calc R
C18 C 0.36425(4) 0.6916(2) 0.85587(12) 0.0196(4) Uani 1 1 d .
C19 C 0.33399(5) 0.6478(3) 0.82585(14) 0.0257(4) Uani 1 1 d .
H19 H 0.3288 0.5323 0.8097 0.031 Uiso 1 1 calc R
C20 C 0.31146(5) 0.7736(3) 0.81967(15) 0.0327(5) Uani 1 1 d .
H20 H 0.2907 0.7441 0.7983 0.039 Uiso 1 1 calc R
C21 C 0.31851(5) 0.9426(3) 0.84415(15) 0.0327(5) Uani 1 1 d .
C22 C 0.34912(6) 0.9836(3) 0.87234(16) 0.0358(5) Uani 1 1 d .
H22 H 0.3544 1.0992 0.8880 0.043 Uiso 1 1 calc R
C23 C 0.37204(5) 0.8599(3) 0.87812(15) 0.0286(4) Uani 1 1 d .
H23 H 0.3929 0.8899 0.8972 0.034 Uiso 1 1 calc R
C24 C 0.52040(5) 0.6706(3) 0.39205(16) 0.0331(5) Uani 1 1 d .
H24A H 0.5144 0.5530 0.3743 0.050 Uiso 1 1 calc GR
H24B H 0.5414 0.6700 0.4238 0.050 Uiso 1 1 calc GR
H24C H 0.5201 0.7424 0.3364 0.050 Uiso 1 1 calc GR
C25 C 0.29366(7) 1.0785(3) 0.84316(19) 0.0486(7) Uani 1 1 d .
H25A H 0.2749 1.0377 0.8068 0.073 Uiso 1 1 calc GR
H25B H 0.3010 1.1839 0.8152 0.073 Uiso 1 1 calc GR
H25C H 0.2889 1.1023 0.9068 0.073 Uiso 1 1 calc GR
loop_
_atom_site_aniso_label
_atom_site_aniso_U_11
_atom_site_aniso_U_22
_atom_site_aniso_U_33
_atom_site_aniso_U_23
_atom_site_aniso_U_13
_atom_site_aniso_U_12
Cl1 0.0373(3) 0.0407(3) 0.0596(4) 0.0082(3) -0.0037(3) -0.0217(3)
S1 0.0216(2) 0.0165(2) 0.0224(2) -0.00580(17) 0.00641(18) -0.00209(18)
S2 0.0208(2) 0.0183(2) 0.0150(2) 0.00064(17) 0.00019(17) -0.00265(17)
O1 0.0352(8) 0.0300(8) 0.0248(7) -0.0126(6) 0.0080(6) -0.0118(6)
O2 0.0260(7) 0.0162(7) 0.0406(8) -0.0010(6) 0.0098(6) 0.0040(6)
O3 0.0259(7) 0.0316(8) 0.0192(7) -0.0007(6) -0.0032(5) -0.0058(6)
O4 0.0288(7) 0.0192(7) 0.0214(7) 0.0037(5) 0.0008(6) -0.0040(6)
N1 0.0182(7) 0.0176(8) 0.0166(8) -0.0030(6) 0.0038(6) -0.0019(6)
N2 0.0183(7) 0.0187(8) 0.0181(8) -0.0026(6) 0.0011(6) -0.0014(6)
C1 0.0157(8) 0.0229(9) 0.0202(9) -0.0016(7) 0.0022(7) -0.0019(7)
C2 0.0199(9) 0.0230(9) 0.0167(9) -0.0026(7) 0.0013(7) -0.0037(8)
C3 0.0217(9) 0.0187(9) 0.0160(9) -0.0055(7) 0.0047(7) -0.0013(7)
C4 0.0225(9) 0.0173(9) 0.0196(9) -0.0053(7) 0.0015(7) -0.0025(7)
C5 0.0233(9) 0.0219(10) 0.0200(9) 0.0001(8) 0.0021(7) -0.0030(8)
C6 0.0209(9) 0.0276(10) 0.0187(9) -0.0014(8) 0.0007(7) -0.0047(8)
C7 0.0224(10) 0.0293(11) 0.0375(12) 0.0039(9) -0.0009(9) -0.0003(9)
C8 0.0186(10) 0.0404(13) 0.0435(13) 0.0026(10) 0.0017(9) -0.0057(9)
C9 0.0267(10) 0.0341(12) 0.0326(12) 0.0019(9) 0.0003(9) -0.0146(9)
C10 0.0313(11) 0.0248(10) 0.0312(11) -0.0028(9) 0.0009(9) -0.0045(9)
C11 0.0225(9) 0.0271(10) 0.0276(10) -0.0067(8) 0.0023(8) -0.0037(8)
C12 0.0186(8) 0.0150(8) 0.0203(9) -0.0005(7) 0.0050(7) -0.0021(7)
C13 0.0218(9) 0.0293(11) 0.0186(9) 0.0012(8) -0.0021(7) -0.0029(8)
C14 0.0179(9) 0.0302(11) 0.0282(11) 0.0067(8) 0.0014(8) 0.0032(8)
C15 0.0245(9) 0.0163(9) 0.0257(10) 0.0041(7) 0.0094(8) -0.0005(7)
C16 0.0262(10) 0.0235(10) 0.0175(9) 0.0013(8) 0.0040(7) -0.0048(8)
C17 0.0176(8) 0.0209(9) 0.0203(9) 0.0037(7) -0.0005(7) -0.0003(7)
C18 0.0247(9) 0.0199(9) 0.0148(8) 0.0001(7) 0.0055(7) -0.0010(8)
C19 0.0243(10) 0.0254(10) 0.0278(10) -0.0039(8) 0.0041(8) -0.0005(8)
C20 0.0268(10) 0.0394(13) 0.0325(12) -0.0026(10) 0.0053(9) 0.0061(9)
C21 0.0424(13) 0.0307(11) 0.0269(11) 0.0047(9) 0.0137(9) 0.0128(10)
C22 0.0546(14) 0.0183(10) 0.0368(12) -0.0020(9) 0.0170(11) 0.0009(10)
C23 0.0321(11) 0.0220(10) 0.0325(11) -0.0035(9) 0.0081(9) -0.0056(9)
C24 0.0337(11) 0.0298(11) 0.0387(12) -0.0006(10) 0.0192(10) 0.0014(9)
C25 0.0632(17) 0.0410(14) 0.0434(14) 0.0038(11) 0.0159(13) 0.0273(13)
loop_
_atom_type_symbol
_atom_type_description
_atom_type_scat_dispersion_real
_atom_type_scat_dispersion_imag
_atom_type_scat_source
C C 0.0033 0.0016 'International Tables Vol C Tables 4.2.6.8 and 6.1.1.4'
H H 0.0000 0.0000 'International Tables Vol C Tables 4.2.6.8 and 6.1.1.4'
Cl Cl 0.1484 0.1585 'International Tables Vol C Tables 4.2.6.8 and 6.1.1.4'
N N 0.0061 0.0033 'International Tables Vol C Tables 4.2.6.8 and 6.1.1.4'
O O 0.0106 0.0060 'International Tables Vol C Tables 4.2.6.8 and 6.1.1.4'
S S 0.1246 0.1234 'International Tables Vol C Tables 4.2.6.8 and 6.1.1.4'
loop_
_geom_angle_atom_site_label_1
_geom_angle_atom_site_label_2
_geom_angle_atom_site_label_3
_geom_angle
O1 S1 N1 106.20(8)
O1 S1 C12 108.85(9)
O2 S1 O1 120.51(9)
O2 S1 N1 106.01(8)
O2 S1 C12 107.73(9)
N1 S1 C12 106.77(8)
O3 S2 O4 120.41(8)
O3 S2 N2 105.82(8)
O3 S2 C18 107.51(9)
O4 S2 N2 105.11(8)
O4 S2 C18 107.28(9)
N2 S2 C18 110.56(8)
C1 N1 S1 114.66(12)
C1 N1 C2 111.95(14)
C2 N1 S1 113.99(12)
C1 N2 S2 118.58(12)
C1 N2 C4 114.14(14)
C4 N2 S2 119.06(12)
N1 C1 H1A 109.7
N1 C1 H1B 109.7
N2 C1 N1 109.90(14)
N2 C1 H1A 109.7
N2 C1 H1B 109.7
H1A C1 H1B 108.2
N1 C2 H2A 109.3
N1 C2 H2B 109.3
N1 C2 C3 111.71(15)
H2A C2 H2B 107.9
C3 C2 H2A 109.3
C3 C2 H2B 109.3
C2 C3 C4 114.22(15)
C5 C3 C2 119.76(17)
C5 C3 C4 125.82(17)
N2 C4 C3 111.05(15)
N2 C4 H4A 109.4
N2 C4 H4B 109.4
C3 C4 H4A 109.4
C3 C4 H4B 109.4
H4A C4 H4B 108.0
C3 C5 H5 116.2
C3 C5 C6 127.52(18)
C6 C5 H5 116.2
C7 C6 C5 119.23(19)
C7 C6 C11 118.16(18)
C11 C6 C5 122.50(17)
C6 C7 H7 119.6
C8 C7 C6 120.7(2)
C8 C7 H7 119.6
C7 C8 H8 120.3
C9 C8 C7 119.49(19)
C9 C8 H8 120.3
C8 C9 Cl1 119.28(16)
C8 C9 C10 121.36(19)
C10 C9 Cl1 119.35(18)
C9 C10 H10 120.6
C9 C10 C11 118.9(2)
C11 C10 H10 120.6
C6 C11 H11 119.3
C10 C11 C6 121.39(19)
C10 C11 H11 119.3
C13 C12 S1 120.32(14)
C13 C12 C17 120.19(17)
C17 C12 S1 119.44(14)
C12 C13 H13 120.2
C14 C13 C12 119.52(18)
C14 C13 H13 120.2
C13 C14 H14 119.5
C13 C14 C15 121.04(18)
C15 C14 H14 119.5
C14 C15 C16 118.93(17)
C14 C15 C24 120.51(18)
C16 C15 C24 120.55(19)
C15 C16 H16 119.6
C17 C16 C15 120.79(18)
C17 C16 H16 119.6
C12 C17 H17 120.3
C16 C17 C12 119.48(17)
C16 C17 H17 120.3
C19 C18 S2 120.03(15)
C23 C18 S2 119.27(15)
C23 C18 C19 120.69(19)
C18 C19 H19 120.4
C20 C19 C18 119.2(2)
C20 C19 H19 120.4
C19 C20 H20 119.4
C19 C20 C21 121.2(2)
C21 C20 H20 119.4
C20 C21 C25 121.5(2)
C22 C21 C20 118.4(2)
C22 C21 C25 120.2(2)
C21 C22 H22 119.4
C23 C22 C21 121.3(2)
C23 C22 H22 119.4
C18 C23 H23 120.4
C22 C23 C18 119.2(2)
C22 C23 H23 120.4
C15 C24 H24A 109.5
C15 C24 H24B 109.5
C15 C24 H24C 109.5
H24A C24 H24B 109.5
H24A C24 H24C 109.5
H24B C24 H24C 109.5
C21 C25 H25A 109.5
C21 C25 H25B 109.5
C21 C25 H25C 109.5
H25A C25 H25B 109.5
H25A C25 H25C 109.5
H25B C25 H25C 109.5
loop_
_geom_bond_atom_site_label_1
_geom_bond_atom_site_label_2
_geom_bond_distance
Cl1 C9 1.744(2)
S1 O1 1.4333(15)
S1 O2 1.4288(15)
S1 N1 1.6525(16)
S1 C12 1.7553(18)
S2 O3 1.4311(14)
S2 O4 1.4316(14)
S2 N2 1.6428(16)
S2 C18 1.7582(19)
N1 C1 1.473(2)
N1 C2 1.480(2)
N2 C1 1.447(2)
N2 C4 1.479(2)
C1 H1A 0.9900
C1 H1B 0.9900
C2 H2A 0.9900
C2 H2B 0.9900
C2 C3 1.499(3)
C3 C4 1.502(3)
C3 C5 1.334(3)
C4 H4A 0.9900
C4 H4B 0.9900
C5 H5 0.9500
C5 C6 1.474(3)
C6 C7 1.393(3)
C6 C11 1.396(3)
C7 H7 0.9500
C7 C8 1.386(3)
C8 H8 0.9500
C8 C9 1.375(3)
C9 C10 1.377(3)
C10 H10 0.9500
C10 C11 1.383(3)
C11 H11 0.9500
C12 C13 1.388(3)
C12 C17 1.391(3)
C13 H13 0.9500
C13 C14 1.380(3)
C14 H14 0.9500
C14 C15 1.385(3)
C15 C16 1.390(3)
C15 C24 1.503(3)
C16 H16 0.9500
C16 C17 1.382(3)
C17 H17 0.9500
C18 C19 1.385(3)
C18 C23 1.384(3)
C19 H19 0.9500
C19 C20 1.379(3)
C20 H20 0.9500
C20 C21 1.389(3)
C21 C22 1.388(3)
C21 C25 1.507(3)
C22 H22 0.9500
C22 C23 1.379(3)
C23 H23 0.9500
C24 H24A 0.9800
C24 H24B 0.9800
C24 H24C 0.9800
C25 H25A 0.9800
C25 H25B 0.9800
C25 H25C 0.9800
