#------------------------------------------------------------------------------
#$Date: 2015-07-09 01:08:32 +0300 (Thu, 09 Jul 2015) $
#$Revision: 141405 $
#$URL: svn://www.crystallography.net/cod/cif/1/52/04/1520450.cif $
#------------------------------------------------------------------------------
#
# This file is available in the Crystallography Open Database (COD),
# http://www.crystallography.net/
#
# All data on this site have been placed in the public domain by the
# contributors.
#
data_1520450
loop_
_publ_author_name
'Siva Reddy, Alla'
'Kumara Swamy, K. C.'
_publ_section_title
;
 Use of Elemental Sulfur or Selenium in a Novel One-Pot Copper-Catalyzed
 Tandem Cyclization of Functionalized Ynamides Leading to Benzosultams.
;
_journal_issue                   12
_journal_name_full               'Organic letters'
_journal_page_first              2996
_journal_page_last               2999
_journal_paper_doi               10.1021/acs.orglett.5b01287
_journal_volume                  17
_journal_year                    2015
_chemical_formula_sum            'C17 H17 N O2 S2'
_chemical_formula_weight         331.44
_chemical_name_systematic
; 
 ? 
;
_space_group_IT_number           14
_symmetry_cell_setting           monoclinic
_symmetry_space_group_name_Hall  '-P 2yn'
_symmetry_space_group_name_H-M   'P 1 21/n 1'
_atom_sites_solution_hydrogens   geom
_atom_sites_solution_primary     direct
_atom_sites_solution_secondary   difmap
_audit_creation_method           SHELXL-97
_cell_angle_alpha                90.00
_cell_angle_beta                 93.665(2)
_cell_angle_gamma                90.00
_cell_formula_units_Z            4
_cell_length_a                   6.63588(15)
_cell_length_b                   12.9255(3)
_cell_length_c                   19.0476(4)
_cell_measurement_reflns_used    3706
_cell_measurement_temperature    298(2)
_cell_measurement_theta_max      71.5260
_cell_measurement_theta_min      3.4390
_cell_volume                     1630.41(6)
_computing_cell_refinement       'CrysAlisPro, Oxford Diffraction Ltd.'
_computing_data_collection       'CrysAlisPro, Oxford Diffraction Ltd.'
_computing_data_reduction        'CrysAlisPro, Oxford Diffraction Ltd.'
_computing_structure_refinement  'SHELXL-97 (Sheldrick, 1997)'
_computing_structure_solution    'SHELXS-97 (Sheldrick, 1990)'
_diffrn_ambient_temperature      298(2)
_diffrn_detector_area_resol_mean 16.3291
_diffrn_measured_fraction_theta_full 'ACTA 50'
_diffrn_measured_fraction_theta_max 0.974
_diffrn_measurement_device_type  'Xcalibur, Eos, Gemini'
_diffrn_measurement_method       '\w scans'
_diffrn_radiation_monochromator  graphite
_diffrn_radiation_source         'fine-focus sealed tube'
_diffrn_radiation_type           CuK\a
_diffrn_radiation_wavelength     1.54184
_diffrn_reflns_av_R_equivalents  0.0145
_diffrn_reflns_av_sigmaI/netI    0.0173
_diffrn_reflns_limit_h_max       8
_diffrn_reflns_limit_h_min       -5
_diffrn_reflns_limit_k_max       15
_diffrn_reflns_limit_k_min       -15
_diffrn_reflns_limit_l_max       23
_diffrn_reflns_limit_l_min       -23
_diffrn_reflns_number            6160
_diffrn_reflns_theta_full        'ACTA 50'
_diffrn_reflns_theta_max         71.58
_diffrn_reflns_theta_min         4.65
_diffrn_standards_decay_%        none
_diffrn_standards_interval_count 'not applicable'
_diffrn_standards_interval_time  'not applicable'
_diffrn_standards_number         'not applicable'
_exptl_absorpt_coefficient_mu    3.008
_exptl_absorpt_correction_T_max  1.00000
_exptl_absorpt_correction_T_min  0.56860
_exptl_absorpt_correction_type   multi-scan
_exptl_absorpt_process_details   'CrysAlisPro, Oxford Diffraction Ltd.'
_exptl_crystal_colour            colorless
_exptl_crystal_density_diffrn    1.350
_exptl_crystal_density_method    'not measured'
_exptl_crystal_description       blocks
_exptl_crystal_F_000             696
_exptl_crystal_size_max          0.24
_exptl_crystal_size_mid          0.16
_exptl_crystal_size_min          0.14
_refine_diff_density_max         0.318
_refine_diff_density_min         -0.404
_refine_diff_density_rms         0.066
_refine_ls_extinction_method     none
_refine_ls_goodness_of_fit_ref   1.046
_refine_ls_hydrogen_treatment    constr
_refine_ls_matrix_type           full
_refine_ls_number_parameters     201
_refine_ls_number_reflns         3093
_refine_ls_number_restraints     0
_refine_ls_restrained_S_all      1.046
_refine_ls_R_factor_all          0.0415
_refine_ls_R_factor_gt           0.0391
_refine_ls_shift/su_max          0.001
_refine_ls_shift/su_mean         0.000
_refine_ls_structure_factor_coef Fsqd
_refine_ls_weighting_details
'calc w=1/[\s^2^(Fo^2^)+(0.0649P)^2^+0.5746P] where P=(Fo^2^+2Fc^2^)/3'
_refine_ls_weighting_scheme      calc
_refine_ls_wR_factor_gt          0.1054
_refine_ls_wR_factor_ref         0.1076
_reflns_number_gt                2880
_reflns_number_total             3093
_reflns_threshold_expression     >2sigma(I)
_cod_data_source_file            ol5b01287_si_002.cif
_cod_data_source_block           compound-8
_cod_depositor_comments
'Adding full bibliography for 1520446--1520450.cif.'
_cod_original_cell_volume        1630.41(7)
_cod_database_code               1520450
loop_
_symmetry_equiv_pos_as_xyz
'x, y, z'
'-x+1/2, y+1/2, -z+1/2'
'-x, -y, -z'
'x-1/2, -y-1/2, z-1/2'
loop_
_atom_site_label
_atom_site_type_symbol
_atom_site_fract_x
_atom_site_fract_y
_atom_site_fract_z
_atom_site_U_iso_or_equiv
_atom_site_adp_type
_atom_site_occupancy
_atom_site_symmetry_multiplicity
_atom_site_calc_flag
_atom_site_refinement_flags
S2 S 0.18317(6) 0.59972(3) 0.91612(2) 0.03287(14) Uani 1 1 d .
S1 S 0.28173(7) 0.80222(4) 1.02600(2) 0.03956(15) Uani 1 1 d .
O2 O 0.4076(2) 0.72124(13) 1.05474(7) 0.0541(4) Uani 1 1 d .
C5 C 0.3052(3) 0.73303(16) 0.81888(9) 0.0381(4) Uani 1 1 d .
H5 H 0.2813 0.6768 0.7890 0.046 Uiso 1 1 calc R
C6 C 0.2682(2) 0.72333(13) 0.88944(9) 0.0299(3) Uani 1 1 d .
N1 N 0.0491(2) 0.77265(12) 1.03991(8) 0.0382(4) Uani 1 1 d .
C8 C -0.2218(3) 0.60661(14) 0.92880(9) 0.0339(4) Uani 1 1 d .
H8 H -0.3305 0.6116 0.9571 0.041 Uiso 1 1 calc R
O1 O 0.3133(3) 0.90556(13) 1.05152(8) 0.0639(5) Uani 1 1 d .
C1 C 0.3066(3) 0.80770(14) 0.93390(9) 0.0327(4) Uani 1 1 d .
C3 C 0.4088(3) 0.90844(17) 0.83613(12) 0.0509(5) Uani 1 1 d .
H3 H 0.4533 0.9709 0.8184 0.061 Uiso 1 1 calc R
C9 C -0.2702(3) 0.57743(15) 0.85453(9) 0.0368(4) Uani 1 1 d .
C2 C 0.3750(3) 0.90058(15) 0.90693(11) 0.0441(5) Uani 1 1 d .
H2 H 0.3981 0.9572 0.9364 0.053 Uiso 1 1 calc R
C7 C -0.0410(2) 0.62643(13) 0.95965(8) 0.0292(3) Uani 1 1 d .
C15 C -0.0128(3) 0.66318(14) 1.03452(9) 0.0347(4) Uani 1 1 d .
H15A H -0.1385 0.6543 1.0572 0.042 Uiso 1 1 calc R
H15B H 0.0889 0.6208 1.0595 0.042 Uiso 1 1 calc R
C14 C -0.3848(3) 0.49095(18) 0.83813(12) 0.0496(5) Uani 1 1 d .
H14 H -0.4327 0.4500 0.8736 0.060 Uiso 1 1 calc R
C16 C 0.4134(4) 0.8339(2) 0.71445(12) 0.0712(8) Uani 1 1 d .
H16A H 0.3610 0.8986 0.6966 0.107 Uiso 1 1 calc R
H16B H 0.3464 0.7780 0.6893 0.107 Uiso 1 1 calc R
H16C H 0.5557 0.8306 0.7083 0.107 Uiso 1 1 calc R
C4 C 0.3774(3) 0.82517(18) 0.79152(10) 0.0460(5) Uani 1 1 d .
C10 C -0.2052(3) 0.63871(19) 0.80013(10) 0.0489(5) Uani 1 1 d .
H10 H -0.1289 0.6977 0.8107 0.059 Uiso 1 1 calc R
C11 C -0.2527(4) 0.6128(3) 0.73084(12) 0.0655(7) Uani 1 1 d .
H11 H -0.2091 0.6544 0.6950 0.079 Uiso 1 1 calc R
C12 C -0.3632(4) 0.5266(3) 0.71505(13) 0.0770(9) Uani 1 1 d .
H12 H -0.3944 0.5091 0.6683 0.092 Uiso 1 1 calc R
C17 C -0.1054(4) 0.84734(17) 1.01496(15) 0.0596(6) Uani 1 1 d .
H17A H -0.1263 0.8424 0.9647 0.089 Uiso 1 1 calc R
H17B H -0.0616 0.9160 1.0276 0.089 Uiso 1 1 calc R
H17C H -0.2296 0.8325 1.0362 0.089 Uiso 1 1 calc R
C13 C -0.4285(4) 0.4654(2) 0.76713(15) 0.0711(8) Uani 1 1 d .
H13 H -0.5029 0.4061 0.7556 0.085 Uiso 1 1 calc R
loop_
_atom_site_aniso_label
_atom_site_aniso_U_11
_atom_site_aniso_U_22
_atom_site_aniso_U_33
_atom_site_aniso_U_23
_atom_site_aniso_U_13
_atom_site_aniso_U_12
S2 0.0301(2) 0.0297(2) 0.0395(2) -0.00036(16) 0.00779(17) 0.00010(15)
S1 0.0414(3) 0.0480(3) 0.0290(2) -0.00292(18) 0.00004(18) -0.0187(2)
O2 0.0429(8) 0.0773(11) 0.0406(7) 0.0145(7) -0.0094(6) -0.0115(7)
C5 0.0332(9) 0.0494(11) 0.0324(9) 0.0025(8) 0.0082(7) 0.0054(8)
C6 0.0225(7) 0.0358(8) 0.0316(8) 0.0051(7) 0.0042(6) 0.0000(6)
N1 0.0412(8) 0.0395(8) 0.0348(8) -0.0059(6) 0.0095(6) -0.0108(7)
C8 0.0305(8) 0.0390(9) 0.0328(9) 0.0011(7) 0.0067(7) -0.0015(7)
O1 0.0817(12) 0.0617(10) 0.0491(9) -0.0187(7) 0.0103(8) -0.0394(9)
C1 0.0280(8) 0.0394(9) 0.0307(8) 0.0053(7) 0.0022(6) -0.0061(7)
C3 0.0481(11) 0.0504(12) 0.0555(12) 0.0208(10) 0.0141(9) -0.0071(9)
C9 0.0249(8) 0.0488(10) 0.0363(9) -0.0026(8) -0.0002(7) 0.0057(7)
C2 0.0423(10) 0.0402(10) 0.0500(11) 0.0054(8) 0.0062(8) -0.0126(8)
C7 0.0309(8) 0.0276(7) 0.0297(8) 0.0029(6) 0.0065(6) -0.0035(6)
C15 0.0370(9) 0.0387(9) 0.0292(8) 0.0029(7) 0.0067(6) -0.0106(7)
C14 0.0317(9) 0.0601(13) 0.0562(12) -0.0087(10) -0.0043(8) -0.0026(9)
C16 0.0799(17) 0.0928(19) 0.0440(12) 0.0257(13) 0.0273(12) 0.0129(15)
C4 0.0379(10) 0.0627(13) 0.0390(10) 0.0195(9) 0.0143(8) 0.0065(9)
C10 0.0435(11) 0.0650(13) 0.0381(10) 0.0058(9) 0.0031(8) 0.0049(10)
C11 0.0530(13) 0.107(2) 0.0364(11) 0.0051(13) 0.0019(10) 0.0165(14)
C12 0.0561(14) 0.132(3) 0.0420(13) -0.0219(15) -0.0086(11) 0.0166(16)
C17 0.0532(13) 0.0445(12) 0.0827(17) -0.0066(11) 0.0157(12) 0.0031(10)
C13 0.0471(13) 0.090(2) 0.0733(17) -0.0330(15) -0.0149(12) -0.0054(13)
loop_
_atom_type_symbol
_atom_type_description
_atom_type_scat_dispersion_real
_atom_type_scat_dispersion_imag
_atom_type_scat_source
C C 0.0181 0.0091 'International Tables Vol C Tables 4.2.6.8 and 6.1.1.4'
H H 0.0000 0.0000 'International Tables Vol C Tables 4.2.6.8 and 6.1.1.4'
N N 0.0311 0.0180 'International Tables Vol C Tables 4.2.6.8 and 6.1.1.4'
O O 0.0492 0.0322 'International Tables Vol C Tables 4.2.6.8 and 6.1.1.4'
S S 0.3331 0.5567 'International Tables Vol C Tables 4.2.6.8 and 6.1.1.4'
loop_
_geom_angle_atom_site_label_1
_geom_angle_atom_site_label_2
_geom_angle_atom_site_label_3
_geom_angle
C6 S2 C7 104.36(8)
O2 S1 O1 118.99(11)
O2 S1 N1 107.66(9)
O1 S1 N1 106.46(10)
O2 S1 C1 108.64(9)
O1 S1 C1 106.12(9)
N1 S1 C1 108.61(8)
C6 C5 C4 121.65(18)
C6 C5 H5 119.2
C4 C5 H5 119.2
C5 C6 C1 118.75(16)
C5 C6 S2 115.90(14)
C1 C6 S2 125.30(13)
C17 N1 C15 115.06(16)
C17 N1 S1 116.33(14)
C15 N1 S1 118.45(13)
C7 C8 C9 127.42(16)
C7 C8 H8 116.3
C9 C8 H8 116.3
C2 C1 C6 120.08(16)
C2 C1 S1 116.88(14)
C6 C1 S1 123.00(13)
C4 C3 C2 121.02(18)
C4 C3 H3 119.5
C2 C3 H3 119.5
C14 C9 C10 119.03(19)
C14 C9 C8 120.47(18)
C10 C9 C8 120.47(18)
C3 C2 C1 119.94(19)
C3 C2 H2 120.0
C1 C2 H2 120.0
C8 C7 C15 122.35(15)
C8 C7 S2 120.96(13)
C15 C7 S2 116.47(12)
N1 C15 C7 112.73(13)
N1 C15 H15A 109.0
C7 C15 H15A 109.0
N1 C15 H15B 109.0
C7 C15 H15B 109.0
H15A C15 H15B 107.8
C9 C14 C13 119.1(2)
C9 C14 H14 120.4
C13 C14 H14 120.4
C4 C16 H16A 109.5
C4 C16 H16B 109.5
H16A C16 H16B 109.5
C4 C16 H16C 109.5
H16A C16 H16C 109.5
H16B C16 H16C 109.5
C3 C4 C5 118.52(17)
C3 C4 C16 121.0(2)
C5 C4 C16 120.5(2)
C11 C10 C9 120.7(2)
C11 C10 H10 119.6
C9 C10 H10 119.6
C12 C11 C10 119.9(2)
C12 C11 H11 120.0
C10 C11 H11 120.0
C11 C12 C13 120.6(2)
C11 C12 H12 119.7
C13 C12 H12 119.7
N1 C17 H17A 109.5
N1 C17 H17B 109.5
H17A C17 H17B 109.5
N1 C17 H17C 109.5
H17A C17 H17C 109.5
H17B C17 H17C 109.5
C12 C13 C14 120.6(3)
C12 C13 H13 119.7
C14 C13 H13 119.7
loop_
_geom_bond_atom_site_label_1
_geom_bond_atom_site_label_2
_geom_bond_distance
S2 C6 1.7792(17)
S2 C7 1.7823(17)
S1 O2 1.4263(17)
S1 O1 1.4322(16)
S1 N1 1.6287(16)
S1 C1 1.7739(18)
C5 C6 1.387(2)
C5 C4 1.397(3)
C5 H5 0.9300
C6 C1 1.394(2)
N1 C17 1.465(3)
N1 C15 1.475(2)
C8 C7 1.327(2)
C8 C9 1.479(2)
C8 H8 0.9300
C1 C2 1.393(2)
C3 C4 1.379(3)
C3 C2 1.385(3)
C3 H3 0.9300
C9 C14 1.377(3)
C9 C10 1.395(3)
C2 H2 0.9300
C7 C15 1.503(2)
C15 H15A 0.9700
C15 H15B 0.9700
C14 C13 1.404(3)
C14 H14 0.9300
C16 C4 1.507(3)
C16 H16A 0.9600
C16 H16B 0.9600
C16 H16C 0.9600
C10 C11 1.378(3)
C10 H10 0.9300
C11 C12 1.357(4)
C11 H11 0.9300
C12 C13 1.361(5)
C12 H12 0.9300
C17 H17A 0.9600
C17 H17B 0.9600
C17 H17C 0.9600
C13 H13 0.9300
